216
Lattice="11.605727294873521 0.0 0.0 0.0 13.401139555673227 0.0 0.0 0.0 28.428109966331448" Properties=species:S:1:pos:R:3:forces:R:3:energies:R:1 energy=-1164.1230755941601 stress="0.0018837515813212922 -0.0002172305600250388 0.0001592744108441297 -0.0002172305600250388 0.0016996050691241416 -7.728313689646794e-05 0.0001592744108441297 -7.728313689646794e-05 0.001762015586910341" free_energy=-1164.1230755941601 pbc="T T T"
Si       0.00547429      13.39988950      20.93609368      -0.00001787      -0.00001120      -0.00002833      -5.38568175
Si       0.00731967       0.00066107      23.30478946      -0.00001211      -0.00003815      -0.00003356      -5.38592234
Si       0.00288652       2.23778432      24.09288662       0.00000711      -0.00002795      -0.00006169      -5.38677951
Si      11.60400692       2.24121783      26.46022107       0.00001156       0.00004139      -0.00000863      -5.39355328
Si      11.59235353       4.48427766      27.23771079       0.00002601      -0.00005530      -0.00004874      -5.40673690
Si      11.59878505       4.47144910       1.17710152       0.00002811       0.00000034      -0.00001789      -5.39878135
Si       1.93723536       1.11824153      27.23980307      -0.00000416      -0.00000429       0.00005228      -5.39654832
Si       1.93334680       1.12081668       1.18025167       0.00003190       0.00001938      -0.00002601      -5.39224436
Si       1.93921681       3.35092841      20.93951748       0.00002339      -0.00001001      -0.00007306      -5.38463170
Si       1.94454581       3.35589966      23.31138935       0.00004823      -0.00003404      -0.00001001      -5.37959525
Si       1.94469524       5.59119618      24.10352464       0.00001989      -0.00002592      -0.00004390      -5.38209249
Si       1.95057614       5.58786000      26.46368087       0.00000971       0.00004623      -0.00005829      -5.38637800
Si       3.87484093      13.39746955      20.93624103       0.00001072       0.00003552      -0.00001898      -5.38614401
Si       3.87753422      13.39373003      23.30521927      -0.00002727      -0.00000168       0.00004140      -5.39170955
Si       3.87647010       2.22810009      24.09208745       0.00004870       0.00002423      -0.00001127      -5.38772967
Si       3.87758191       2.22842973      26.45293084       0.00003586      -0.00005856      -0.00003820      -5.38984977
Si       3.87230167       4.46287432      27.24064319       0.00002956       0.00000087       0.00005210      -5.37867734
Si       3.88742539       4.49148382       1.16240848       0.00013339       0.00006051      -0.00006717      -5.38251269
Si       5.80534993       1.10389441      27.23495855      -0.00000881       0.00005546       0.00000030      -5.39541242
Si       5.80090886       1.12675844       1.17169927       0.00004333       0.00000337       0.00005376      -5.38948986
Si       5.80693919       3.34956789      20.94058280      -0.00001751       0.00003347      -0.00006926      -5.39319243
Si       5.80667852       3.34358319      23.31004499      -0.00001593      -0.00008197       0.00004481      -5.38671566
Si       5.80904778       5.57679091      24.10139040       0.00000619       0.00018332      -0.00003002      -5.38032745
P        5.79400945       5.54792887      26.44544561      -0.00001317       0.00002463      -0.00002489      -5.70788759
Si       7.74089958      13.39623262      20.93783290      -0.00005737       0.00002536      -0.00000653      -5.38524022
Si       7.74058569      13.38799363      23.30940831       0.00007074      -0.00006378       0.00005322      -5.38262966
Si       7.73533562       2.22562694      24.09349239      -0.00008016       0.00001031      -0.00001613      -5.38787578
Si       7.72871008       2.23620610      26.45386602      -0.00002973      -0.00012395      -0.00000392      -5.39060946
Si       7.71742130       4.48147342      27.23514435       0.00007205       0.00008451       0.00003157      -5.38791763
Si       7.70468019       4.50033307       1.15611139      -0.00010094       0.00005240      -0.00006819      -5.37884757
Si       9.66745984       1.11979689      27.24060286       0.00000000      -0.00000223       0.00003182      -5.40382003
Si       9.66364751       1.12233168       1.18080024      -0.00006540       0.00001314       0.00000598      -5.39467920
Si       9.67299413       3.35057304      20.94060907      -0.00003754       0.00002397      -0.00011696      -5.38570555
Si       9.66557746       3.35543439      23.31255645       0.00004134      -0.00001873      -0.00003712      -5.38312266
Si       9.66184154       5.59175888      24.10389201      -0.00000591       0.00001715       0.00000541      -5.38390591
Si       9.63136223       5.60866595      26.45754562      -0.00000239       0.00003582      -0.00004800      -5.37762029
Si       0.00251544       6.70008698      20.94334954       0.00000187      -0.00002792      -0.00007812      -5.38663130
Si      11.60364701       6.70480676      23.31583221      -0.00000111      -0.00000403      -0.00004851      -5.38718387
Si       0.00731724       8.93889884      24.09585356      -0.00002290       0.00000485      -0.00002270      -5.39445830
Si       0.00733847       8.93473915      26.45716619       0.00001961       0.00011473      -0.00010894      -5.40096313
Si       0.00409236      11.16741590      27.23569298      -0.00000984      -0.00003748      -0.00000338      -5.39423141
Si      11.59863368      11.16204567       1.17155960       0.00001954      -0.00003753      -0.00001067      -5.38769272
Si       1.94632983       7.80635055      27.25126147       0.00002457      -0.00008834       0.00005048      -5.39053944
Si       1.94654384       7.81432933       1.17428530       0.00002248       0.00003666      -0.00005142      -5.38718469
Si       1.94115800      10.04782047      20.94139098      -0.00004157       0.00002699      -0.00003099      -5.38853342
Si       1.95221256      10.04285706      23.31148992      -0.00003197       0.00005029      -0.00005941      -5.40133046
Si       1.94180391      12.28131268      24.09175617      -0.00004955       0.00000441      -0.00001985      -5.39159553
Si       1.94768946      12.27907344      26.46036604      -0.00003556       0.00005652      -0.00004718      -5.40321213
Si       3.87519595       6.69840909      20.95004143      -0.00000395       0.00002782       0.00000948      -5.39329288
Si       3.88458346       6.69755393      23.32871118      -0.00000379       0.00000088       0.00001750      -5.38181756
Si       3.89376085       8.91881255      24.10731413       0.00004817      -0.00004649      -0.00004514      -5.38305386
Si       3.85941946       8.93225612      26.46192370      -0.00001299       0.00007016      -0.00007932      -5.41873456
Si       3.88987982      11.15147110      27.24992195       0.00003061       0.00000880       0.00002976      -5.38342297
Si       3.87915250      11.14913621       1.17345931       0.00004073      -0.00007766      -0.00006122      -5.38210121
P        5.77933757       7.82501613      27.24859243       0.00000959       0.00001344      -0.00004488      -5.15457931
P        5.79179304       7.82060680       1.20427266       0.00003231      -0.00007342       0.00000228      -5.71606674
Si       5.80958546      10.04416261      20.94885897      -0.00001508       0.00005378       0.00001937      -5.39318013
Si       5.81558255      10.03277758      23.32768875       0.00000399      -0.00000829       0.00008426      -5.38173128
Si       5.80896367      12.26466055      24.09976055       0.00002941       0.00006825      -0.00003257      -5.38178803
Si       5.81292864      12.25620591      26.45993058      -0.00002890      -0.00009748       0.00003756      -5.38378453
Si       7.73816093       6.70011963      20.95898225       0.00000685       0.00004486      -0.00007097      -5.39629221
Si       7.73205579       6.70324017      23.34422578       0.00003188      -0.00005851       0.00009320      -5.37912706
Si       7.75032147       8.93100329      24.10093456      -0.00005572      -0.00001162      -0.00005911      -5.38236838
P        7.77388815       8.95863430      26.44286390      -0.00003836      -0.00000751      -0.00001289      -5.70335726
Si       7.74832744      11.16162110      27.24067600      -0.00005746      -0.00000013       0.00001386      -5.38209463
Si       7.72753700      11.13614325       1.16309075      -0.00002985      -0.00015028      -0.00000671      -5.37969126
Si       9.65574069       7.82869980      27.23509917      -0.00006568      -0.00009180       0.00003981      -5.39049615
Si       9.62971199       7.82689206       1.15656830      -0.00004800       0.00001419      -0.00003695      -5.37884612
Si       9.67580600      10.04736744      20.94158934      -0.00000477      -0.00001216      -0.00004850      -5.39372576
Si       9.68244102      10.05075359      23.31107944       0.00000403       0.00006597       0.00000005      -5.38552831
Si       9.68089953      12.28024578      24.09282224      -0.00001907      -0.00000634      -0.00002396      -5.38889267
Si       9.68054011      12.28341539      26.45357132       0.00004360       0.00001873      -0.00007287      -5.38676278
Si      11.60094545       0.00078852       1.96229472       0.00000029       0.00001845      -0.00003208      -5.38472069
Si      11.60156230       0.00011312       4.33101539      -0.00000232       0.00002933      -0.00003489      -5.38600896
Si      11.60045099       2.23713560       5.11720596      -0.00005138      -0.00000144       0.00003334      -5.38163423
Si      11.60240497       2.23557664       7.48946204       0.00001729       0.00002384       0.00002164      -5.38411766
Si      11.60226811       4.46918845       8.28146994      -0.00003659       0.00000812       0.00001233      -5.38349006
Si      11.60430244       4.46785609      10.65423052      -0.00001339      -0.00002047       0.00002760      -5.38339345
Si       1.93154045       1.11833447       8.28240870      -0.00007189      -0.00001158       0.00001275      -5.38303677
Si       1.93301184       1.11751935      10.65480598       0.00007410      -0.00003598      -0.00003977      -5.38349676
Si       1.94116793       3.36382321       1.95580500      -0.00003798      -0.00003176      -0.00002655      -5.39460318
Si       1.92934514       3.35449228       4.32622692       0.00000534       0.00002559      -0.00000938      -5.39060036
Si       1.93118952       5.58976187       5.11681053       0.00001029       0.00004373       0.00001591      -5.39147860
Si       1.93017144       5.58580188       7.48874221       0.00003034      -0.00001027       0.00005165      -5.38520951
Si       3.87001942      13.39532935       1.96028978      -0.00008113       0.00005153      -0.00009414      -5.39392112
Si       3.86637710       0.00323541       4.33040558       0.00000459      -0.00001525       0.00003516      -5.38860734
Si       3.86588859       2.23896588       5.11827744      -0.00002695       0.00004476      -0.00002304      -5.38386088
Si       3.86588137       2.23621009       7.49021424       0.00000987      -0.00000953      -0.00001899      -5.38402777
Si       3.86533663       4.46956886       8.28383135       0.00003959       0.00000560      -0.00000743      -5.38395394
Si       3.86714060       4.46796493      10.65567415       0.00007290      -0.00003964      -0.00000218      -5.38353114
Si       5.80016991       1.11872426       8.28270311      -0.00003982      -0.00000116      -0.00000009      -5.38355629
Si       5.80169645       1.11763843      10.65509854       0.00001506       0.00002515       0.00001072      -5.38343456
Si       5.79861059       3.36666007       1.95292026      -0.00002123       0.00000758      -0.00008123      -5.38071393
Si       5.79831751       3.36328804       4.32355679       0.00001981      -0.00007898      -0.00000045      -5.38504426
Si       5.79858689       5.59257787       5.12328384       0.00001537       0.00002440       0.00000097      -5.38704827
Si       5.79996253       5.58655020       7.49359565       0.00001597      -0.00007441      -0.00003544      -5.38738936
Si       7.73007261      13.38742844       1.95561937       0.00003487       0.00008093      -0.00006326      -5.39741590
Si       7.73233278       0.00223326       4.32711609      -0.00006216       0.00001937       0.00000896      -5.38958308
Si       7.73067501       2.23763295       5.11704895      -0.00002864       0.00003807      -0.00002112      -5.38403038
Si       7.73389300       2.23553195       7.48948152      -0.00001195      -0.00002473      -0.00001009      -5.38386521
Si       7.73448427       4.46903189       8.28346719      -0.00008723      -0.00001807      -0.00000484      -5.38413433
Si       7.73610235       4.46781901      10.65548374      -0.00004930      -0.00004770       0.00002096      -5.38349972
Si       9.66849358       1.11790058       8.28217485       0.00000631       0.00000828       0.00003100      -5.38317138
Si       9.67024455       1.11740498      10.65466189      -0.00003038      -0.00000901      -0.00001074      -5.38346800
Si       9.65042957       3.36604299       1.95381396       0.00007665      -0.00005415      -0.00000316      -5.39573968
Si       9.66508476       3.35451380       4.32473835      -0.00003289       0.00001585      -0.00000126      -5.39099579
Si       9.66176381       5.58974322       5.11479281      -0.00004901       0.00004387       0.00004644      -5.39326727
Si       9.66808741       5.58566049       7.48743196      -0.00002226      -0.00000550       0.00005130      -5.38485034
Si      11.58944916       6.71225247       1.95236194       0.00005280      -0.00003076       0.00003840      -5.40643020
Si      11.59879716       6.70313514       4.32440865      -0.00000110       0.00001852      -0.00001326      -5.39379019
Si      11.60076682       8.93534916       5.11768674      -0.00002515       0.00005156       0.00000541      -5.38480061
Si      11.60267569       8.93479757       7.49014279       0.00000095       0.00005718       0.00007190      -5.38372350
Si      11.60305105      11.16792574       8.28332612       0.00001071       0.00002905      -0.00003369      -5.38358723
Si      11.60454415      11.16789100      10.65574833       0.00004800      -0.00003132      -0.00000403      -5.38346382
Si       1.93144328       7.81848516       8.28440234       0.00003068       0.00006310      -0.00007141      -5.38408033
Si       1.93289136       7.81775401      10.65624232       0.00005655       0.00001344       0.00002922      -5.38351774
Si       1.93974547      10.04451650       1.95542202      -0.00002273      -0.00003265      -0.00002225      -5.38090414
Si       1.93674153      10.04698991       4.32539468      -0.00000651      -0.00001041       0.00001408      -5.38106793
Si       1.93251883      12.28310549       5.11973672      -0.00003836      -0.00000403       0.00001861      -5.38327390
Si       1.93197842      12.28497644       7.49156533       0.00001099       0.00001348      -0.00004195      -5.38393625
Si       3.86946254       6.70285790       1.96571503       0.00002370      -0.00004520      -0.00002328      -5.37525419
Si       3.86978494       6.70690617       4.33409291       0.00004852      -0.00000271       0.00004606      -5.38807897
Si       3.86880346       8.93354546       5.12412401      -0.00001916      -0.00000834      -0.00002834      -5.38608977
Si       3.86620041       8.93514632       7.49449200       0.00007082      -0.00004608       0.00000076      -5.38724566
Si       3.86652888      11.16877822       8.28535189      -0.00010281      -0.00000432      -0.00009249      -5.38405612
Si       3.86743027      11.16825928      10.65682291       0.00005722      -0.00001004       0.00001215      -5.38357550
Si       5.80017942       7.81866268       8.28796564      -0.00000360       0.00001672      -0.00002972      -5.38434190
Si       5.80166160       7.81793294      10.65851156       0.00001913      -0.00003047      -0.00001410      -5.38386412
Si       5.80398380      10.04371755       1.96632982       0.00003031       0.00004133      -0.00004523      -5.37692284
Si       5.79918855      10.04475107       4.33490918       0.00000258      -0.00009074       0.00012234      -5.38708049
Si       5.79975915      12.28215325       5.11962971      -0.00002620       0.00003175      -0.00002936      -5.39260158
Si       5.80022099      12.28622992       7.49087546       0.00002829      -0.00004383      -0.00000438      -5.38500478
Si       7.71482122       6.71418240       1.95036173      -0.00000710       0.00002088      -0.00007127      -5.38526409
Si       7.72425923       6.70799818       4.32773941      -0.00001605      -0.00003407       0.00013169      -5.38782131
Si       7.72853045       8.93255114       5.12424186      -0.00000546       0.00000801      -0.00001591      -5.38730980
Si       7.73365490       8.93467658       7.49432619      -0.00000894      -0.00005140       0.00002797      -5.38721150
Si       7.73414207      11.16838538       8.28517464       0.00001263      -0.00001427      -0.00005468      -5.38410981
Si       7.73601799      11.16817589      10.65671429      -0.00000318      -0.00000622      -0.00000630      -5.38355108
Si       9.66852926       7.81819478       8.28408617      -0.00002255       0.00006770      -0.00005132      -5.38417261
Si       9.67035336       7.81761358      10.65608281      -0.00003181       0.00000025       0.00000647      -5.38348907
Si       9.65690359      10.04413716       1.95404070      -0.00000933      -0.00001888      -0.00003224      -5.38314047
Si       9.65945902      10.04639634       4.32459613       0.00003148      -0.00001873       0.00004477      -5.38447233
Si       9.66544660      12.28237458       5.11928350      -0.00001368       0.00001721      -0.00001217      -5.38426846
Si       9.66810972      12.28458614       7.49098256       0.00001770      -0.00000192      -0.00000607      -5.38389096
Si      11.60475938       0.00044641      11.44754805      -0.00000143       0.00002531      -0.00001574      -5.38352079
Si       0.00071639      13.40077837      13.81959768       0.00001411      -0.00003363       0.00002627      -5.38339646
Si       0.00084917       2.23323159      14.61169101      -0.00003241       0.00005258       0.00007155      -5.38364297
Si       0.00241732       2.23275485      16.98357675       0.00002213      -0.00001836       0.00006527      -5.38332508
Si       0.00240160       4.46593674      17.77722789      -0.00002574      -0.00002273      -0.00005852      -5.38342704
Si       0.00289709       4.46688611      20.14930378       0.00000899       0.00002568      -0.00005215      -5.38388257
Si       1.93730736       1.11578961      17.77503470       0.00000822       0.00000619       0.00001896      -5.38395591
Si       1.94007995       1.11626262      20.14630348       0.00006651      -0.00001852      -0.00005897      -5.38270021
Si       1.93294407       3.35094269      11.44739192       0.00003338      -0.00001872       0.00004498      -5.38360671
Si       1.93475652       3.35019765      13.81935944       0.00004478      -0.00005136       0.00005561      -5.38345778
Si       1.93492400       5.58332680      14.61277450      -0.00002440      -0.00001092      -0.00000379      -5.38349831
Si       1.93647801       5.58273751      16.98483948      -0.00000729      -0.00002327       0.00009942      -5.38376007
Si       3.86758705       0.00090887      11.44791416      -0.00000306       0.00002187       0.00001629      -5.38360026
Si       3.86920697      13.40105658      13.81973181       0.00002825       0.00002969       0.00002343      -5.38345479
Si       3.86941787       2.23351929      14.61166782       0.00001019       0.00001303       0.00004122      -5.38361914
Si       3.87117020       2.23320810      16.98341616       0.00000154      -0.00004628       0.00003462      -5.38337393
Si       3.87111680       4.46667207      17.77684671       0.00001190      -0.00000286       0.00001265      -5.38350153
Si       3.87294013       4.46774697      20.14741703       0.00000202       0.00000513       0.00004331      -5.38702248
Si       5.80590309       1.11631624      17.77523088      -0.00001248      -0.00002614       0.00000733      -5.38387639
Si       5.80790647       1.11641464      20.14583462       0.00003665      -0.00005313      -0.00000196      -5.38478815
Si       5.80189477       3.35106696      11.44778088      -0.00001887       0.00000977      -0.00006054      -5.38349721
Si       5.80355950       3.35036791      13.81970084       0.00001552       0.00003825       0.00003090      -5.38351985
Si       5.80375261       5.58350634      14.61307665      -0.00003314       0.00001121      -0.00003858      -5.38336498
Si       5.80523883       5.58327808      16.98527790       0.00000697       0.00000818       0.00000201      -5.38420166
Si       7.73625229       0.00084658      11.44794885      -0.00003137       0.00001572       0.00002868      -5.38360395
Si       7.73790719       0.00002537      13.81984182       0.00001876       0.00004302       0.00004078      -5.38341551
Si       7.73813958       2.23363393      14.61210226      -0.00000623       0.00000427       0.00001924      -5.38356307
Si       7.73973941       2.23376106      16.98410195       0.00008326      -0.00007278       0.00002901      -5.38336061
Si       7.73949798       4.46734320      17.77848045      -0.00000449       0.00001953       0.00001919      -5.38323728
Si       7.74000813       4.47030367      20.14952161       0.00002328       0.00000355       0.00005033      -5.38814443
Si       9.67391380       1.11604048      17.77578167      -0.00003223      -0.00001193       0.00000980      -5.38386936
Si       9.67462118       1.11597202      20.14732435       0.00000268      -0.00001056      -0.00006757      -5.38277123
Si       9.67065255       3.35080929      11.44742782      -0.00007506       0.00000075       0.00003284      -5.38365580
Si       9.67215648       3.35020340      13.81946005      -0.00002617      -0.00002794       0.00003947      -5.38351481
Si       9.67234091       5.58329879      14.61300725      -0.00000641      -0.00002257       0.00001282      -5.38345036
Si       9.67356196       5.58291139      16.98523724       0.00006286      -0.00002424       0.00006396      -5.38396346
Si      11.60469600       6.70069377      11.44836179      -0.00003389       0.00002862       0.00001904      -5.38371524
Si       0.00050839       6.70009741      13.82033841      -0.00001789       0.00000024       0.00000367      -5.38363328
Si       0.00080847       8.93318043      14.61371732      -0.00001906      -0.00006749       0.00003798      -5.38343283
Si       0.00222483       8.93171530      16.98619082      -0.00000959       0.00000596       0.00004269      -5.38334605
Si       0.00305565      11.16552693      17.77668251      -0.00000833       0.00003456       0.00006223      -5.38416728
Si       0.00470101      11.16349913      20.14785423      -0.00000039       0.00003195      -0.00000890      -5.38366781
Si       1.93725647       7.81506657      17.77943960      -0.00001462       0.00000429       0.00000208      -5.38334771
Si       1.94041588       7.81317400      20.15146365       0.00004861      -0.00003956       0.00004667      -5.38571140
Si       1.93326596      10.05111924      11.44883924       0.00002170       0.00002641      -0.00003997      -5.38345416
Si       1.93483446      10.05018699      13.82083662       0.00001312      -0.00000051      -0.00000482      -5.38353164
Si       1.93530094      12.28384901      14.61241267       0.00007501       0.00003011       0.00009053      -5.38360309
Si       1.93739098      12.28259943      16.98443919       0.00003042       0.00004889       0.00003518      -5.38314412
Si       3.86735731       6.70102678      11.44930960       0.00010404      -0.00001266      -0.00000641      -5.38353316
Si       3.86904177       6.70019626      13.82096478       0.00006928      -0.00002550       0.00007726      -5.38369520
Si       3.86941611       8.93341442      14.61374432       0.00005855       0.00000386      -0.00003801      -5.38336450
Si       3.87145363       8.93192037      16.98604581       0.00005485      -0.00000996       0.00005105      -5.38376908
Si       3.87249858      11.16552073      17.77740638       0.00001406       0.00007866       0.00006407      -5.38363556
Si       3.87690888      11.16219707      20.14879364       0.00009430       0.00000391       0.00003787      -5.38565099
Si       5.80583647       7.81545328      17.77941804       0.00001468       0.00005853       0.00004383      -5.38316338
Si       5.80741913       7.81376159      20.15000346       0.00003417      -0.00005680      -0.00000591      -5.38917542
Si       5.80194289      10.05146249      11.44971151       0.00001475      -0.00008521       0.00005722      -5.38352919
Si       5.80349480      10.05047394      13.82125618       0.00004141      -0.00000073       0.00012185      -5.38363831
Si       5.80381372      12.28421089      14.61234174       0.00002864       0.00004328       0.00000239      -5.38362246
Si       5.80563673      12.28322410      16.98412296       0.00005294      -0.00001465       0.00005129      -5.38350960
Si       7.73640676       6.70089840      11.44919617      -0.00008982      -0.00001234      -0.00003292      -5.38354074
Si       7.73791096       6.70017200      13.82088117      -0.00005112       0.00000203       0.00009526      -5.38373042
Si       7.73807696       8.93342781      14.61353944      -0.00009079       0.00003182      -0.00002658      -5.38339910
Si       7.73922151       8.93212526      16.98578999      -0.00005117       0.00000143       0.00001231      -5.38411533
Si       7.73951514      11.16563600      17.77665953      -0.00005586       0.00004692       0.00005480      -5.38380788
Si       7.74033043      11.16285661      20.14715120      -0.00006643      -0.00000558      -0.00000615      -5.38675512
Si       9.67306749       7.81530071      17.77958001      -0.00006256       0.00000236       0.00001490      -5.38334116
Si       9.67138244       7.81280446      20.15091351      -0.00003592      -0.00007289       0.00001982      -5.38787301
Si       9.67059665      10.05102010      11.44875022      -0.00003251       0.00000600      -0.00004044      -5.38347317
Si       9.67216851      10.05024814      13.82073390      -0.00004289      -0.00001573       0.00004218      -5.38352592
Si       9.67237973      12.28395153      14.61233813      -0.00011519       0.00005208       0.00005031      -5.38362349
Si       9.67393656      12.28291774      16.98435537      -0.00000981       0.00002339       0.00003727      -5.38315161
