216
Lattice="11.605727294873521 0.0 0.0 0.0 13.401139555673227 0.0 0.0 0.0 28.428109966331448" Properties=species:S:1:pos:R:3:forces:R:3 energy=-1163.6674361396997 free_energy=-1163.6674361396997 pbc="T T T"
Si       0.00000000       0.00000000      20.92624761      -0.00000000       0.00006651      -0.00008312
Si      11.60572729      13.40113956      23.29525678       0.00000000      -0.00001691      -0.00019224
Si      11.60572729       2.23352326      24.08492650      -0.00000000      -0.00006957       0.00007862
Si      11.60572729       2.23352326      26.45393566       0.00000000      -0.00000621      -0.00014596
Si      11.60572729       4.46704652      27.24360538      -0.00000000      -0.00006091       0.00011521
Si       0.00000000       4.46704652       1.18450458       0.00000000      -0.00014401      -0.00006360
Si       1.93428788       1.11676163      27.24360538       0.00003341      -0.00001193       0.00012893
Si       1.93428788       1.11676163       1.18450458       0.00003341       0.00001193      -0.00012893
Si       1.93428788       3.35028489      20.92624761      -0.00008531      -0.00007291      -0.00007512
Si       1.93428788       3.35028489      23.29525678      -0.00006170      -0.00001028      -0.00006203
Si       1.93428788       5.58380815      24.08492650      -0.00001135      -0.00000459       0.00009823
Si       1.93428788       5.58380815      26.45393566      -0.00006853      -0.00007887      -0.00000043
Si       3.86857576      13.40113956      20.92624761      -0.00005771       0.00004231       0.00003409
Si       3.86857576      13.40113956      23.29525678      -0.00003083      -0.00001917      -0.00005299
Si       3.86857576       2.23352326      24.08492650       0.00001587      -0.00001594       0.00004503
Si       3.86857576       2.23352326      26.45393566      -0.00001546       0.00014316      -0.00000046
Si       3.86857576       4.46704652      27.24360538       0.00003861      -0.00009576       0.00006599
Si       3.86857576       4.46704652       1.18450458      -0.00010845      -0.00005004       0.00002309
Si       5.80286365       1.11676163      27.24360538      -0.00000000      -0.00010351       0.00003735
Si       5.80286365       1.11676163       1.18450458      -0.00000000       0.00010351      -0.00003735
Si       5.80286365       3.35028489      20.92624761       0.00000000      -0.00002997       0.00005484
Si       5.80286365       3.35028489      23.29525678      -0.00000000       0.00007039       0.00001842
Si       5.80286365       5.58380815      24.08492650      -0.00000000      -0.00004631       0.00003179
P        5.80286365       5.58380815      26.45393566      -0.00000000       0.00013917      -0.00013651
Si       7.73715153      13.40113956      20.92624761       0.00005771       0.00004231       0.00003409
Si       7.73715153      13.40113956      23.29525678       0.00003083      -0.00001917      -0.00005299
Si       7.73715153       2.23352326      24.08492650      -0.00001587      -0.00001594       0.00004503
Si       7.73715153       2.23352326      26.45393566       0.00001546       0.00014316      -0.00000046
Si       7.73715153       4.46704652      27.24360538      -0.00003861      -0.00009576       0.00006599
Si       7.73715153       4.46704652       1.18450458       0.00010845      -0.00005004       0.00002309
Si       9.67143941       1.11676163      27.24360538      -0.00003341      -0.00001193       0.00012893
Si       9.67143941       1.11676163       1.18450458      -0.00003341       0.00001193      -0.00012893
Si       9.67143941       3.35028489      20.92624761       0.00008531      -0.00007291      -0.00007512
Si       9.67143941       3.35028489      23.29525678       0.00006170      -0.00001028      -0.00006203
Si       9.67143941       5.58380815      24.08492650       0.00001135      -0.00000459       0.00009823
Si       9.67143941       5.58380815      26.45393566       0.00006853      -0.00007887      -0.00000043
Si      11.60572729       6.70056978      20.92624761      -0.00000000      -0.00013148       0.00010086
Si      11.60572729       6.70056978      23.29525678      -0.00000000      -0.00003858       0.00006303
Si      11.60572729       8.93409304      24.08492650      -0.00000000      -0.00013108       0.00002890
Si      11.60572729       8.93409304      26.45393566       0.00000000      -0.00001880       0.00008108
Si      11.60572729      11.16761630      27.24360538      -0.00000000       0.00014401       0.00006360
Si       0.00000000      11.16761630       1.18450458      -0.00000000       0.00006091      -0.00011521
Si       1.93428788       7.81733141      27.24360538      -0.00007886      -0.00000987      -0.00000360
Si       1.93428788       7.81733141       1.18450458      -0.00007886       0.00000987       0.00000360
Si       1.93428788      10.05085467      20.92624761      -0.00001048      -0.00000058       0.00006519
Si       1.93428788      10.05085467      23.29525678       0.00005817       0.00005552      -0.00001064
Si       1.93428788      12.28437793      24.08492650       0.00006164       0.00005467       0.00000477
Si       1.93428788      12.28437793      26.45393566       0.00008246      -0.00005023      -0.00006862
Si       3.86857576       6.70056978      20.92624761       0.00001959       0.00007097       0.00015208
Si       3.86857576       6.70056978      23.29525678       0.00001457      -0.00002863      -0.00005353
Si       3.86857576       8.93409304      24.08492650      -0.00010552       0.00004731       0.00012292
Si       3.86857576       8.93409304      26.45393566       0.00003215       0.00002891      -0.00017168
Si       3.86857576      11.16761630      27.24360538      -0.00010845       0.00005004      -0.00002309
Si       3.86857576      11.16761630       1.18450458       0.00003861       0.00009576      -0.00006599
P        5.80286365       7.81733141      27.24360538       0.00000000      -0.00009534       0.00008703
P        5.80286365       7.81733141       1.18450458      -0.00000000       0.00009534      -0.00008703
Si       5.80286365      10.05085467      20.92624761       0.00000000       0.00004127       0.00012130
Si       5.80286365      10.05085467      23.29525678      -0.00000000       0.00002059      -0.00003623
Si       5.80286365      12.28437793      24.08492650       0.00000000       0.00006299       0.00002227
Si       5.80286365      12.28437793      26.45393566      -0.00000000       0.00002429       0.00000950
Si       7.73715153       6.70056978      20.92624761      -0.00001959       0.00007097       0.00015208
Si       7.73715153       6.70056978      23.29525678      -0.00001457      -0.00002863      -0.00005353
Si       7.73715153       8.93409304      24.08492650       0.00010552       0.00004731       0.00012292
P        7.73715153       8.93409304      26.45393566      -0.00003215       0.00002891      -0.00017168
Si       7.73715153      11.16761630      27.24360538       0.00010845       0.00005004      -0.00002309
Si       7.73715153      11.16761630       1.18450458      -0.00003861       0.00009576      -0.00006599
Si       9.67143941       7.81733141      27.24360538       0.00007886      -0.00000987      -0.00000360
Si       9.67143941       7.81733141       1.18450458       0.00007886       0.00000987       0.00000360
Si       9.67143941      10.05085467      20.92624761       0.00001048      -0.00000058       0.00006519
Si       9.67143941      10.05085467      23.29525678      -0.00005817       0.00005552      -0.00001064
Si       9.67143941      12.28437793      24.08492650      -0.00006164       0.00005467       0.00000477
Si       9.67143941      12.28437793      26.45393566      -0.00008246      -0.00005023      -0.00006862
Si      11.60572729      13.40113956       1.97417430       0.00000000       0.00000621       0.00014596
Si      11.60572729      13.40113956       4.34318347       0.00000000       0.00006957      -0.00007862
Si      11.60572729       2.23352326       5.13285319      -0.00000000       0.00001691       0.00019224
Si      11.60572729       2.23352326       7.50186235      -0.00000000      -0.00006651       0.00008312
Si      11.60572729       4.46704652       8.29153207      -0.00000000      -0.00007332       0.00003901
Si       0.00000000       4.46704652      10.66054124       0.00000000       0.00005717      -0.00002268
Si       1.93428788       1.11676163       8.29153207      -0.00006352      -0.00000715       0.00010520
Si       1.93428788       1.11676163      10.66054124      -0.00008755      -0.00001588      -0.00002402
Si       1.93428788       3.35028489       1.97417430       0.00008246       0.00005023       0.00006862
Si       1.93428788       3.35028489       4.34318347       0.00006164      -0.00005467      -0.00000477
Si       1.93428788       5.58380815       5.13285319       0.00005817      -0.00005552       0.00001064
Si       1.93428788       5.58380815       7.50186235      -0.00001048       0.00000058      -0.00006519
Si       3.86857576      13.40113956       1.97417430      -0.00001546      -0.00014316       0.00000046
Si       3.86857576      13.40113956       4.34318347       0.00001587       0.00001594      -0.00004503
Si       3.86857576       2.23352326       5.13285319      -0.00003083       0.00001917       0.00005299
Si       3.86857576       2.23352326       7.50186235      -0.00005771      -0.00004231      -0.00003409
Si       3.86857576       4.46704652       8.29153207      -0.00004990      -0.00005591      -0.00002960
Si       3.86857576       4.46704652      10.66054124      -0.00001796       0.00000414      -0.00004346
Si       5.80286365       1.11676163       8.29153207      -0.00000000       0.00001139       0.00000270
Si       5.80286365       1.11676163      10.66054124       0.00000000      -0.00002571      -0.00004874
Si       5.80286365       3.35028489       1.97417430      -0.00000000      -0.00002429      -0.00000950
Si       5.80286365       3.35028489       4.34318347      -0.00000000      -0.00006299      -0.00002227
Si       5.80286365       5.58380815       5.13285319       0.00000000      -0.00002059       0.00003623
Si       5.80286365       5.58380815       7.50186235      -0.00000000      -0.00004127      -0.00012130
Si       7.73715153      13.40113956       1.97417430       0.00001546      -0.00014316       0.00000046
Si       7.73715153      13.40113956       4.34318347      -0.00001587       0.00001594      -0.00004503
Si       7.73715153       2.23352326       5.13285319       0.00003083       0.00001917       0.00005299
Si       7.73715153       2.23352326       7.50186235       0.00005771      -0.00004231      -0.00003409
Si       7.73715153       4.46704652       8.29153207       0.00004990      -0.00005591      -0.00002960
Si       7.73715153       4.46704652      10.66054124       0.00001796       0.00000414      -0.00004346
Si       9.67143941       1.11676163       8.29153207       0.00006352      -0.00000715       0.00010520
Si       9.67143941       1.11676163      10.66054124       0.00008755      -0.00001588      -0.00002402
Si       9.67143941       3.35028489       1.97417430      -0.00008246       0.00005023       0.00006862
Si       9.67143941       3.35028489       4.34318347      -0.00006164      -0.00005467      -0.00000477
Si       9.67143941       5.58380815       5.13285319      -0.00005817      -0.00005552       0.00001064
Si       9.67143941       5.58380815       7.50186235       0.00001048       0.00000058      -0.00006519
Si      11.60572729       6.70056978       1.97417430      -0.00000000       0.00001880      -0.00008108
Si      11.60572729       6.70056978       4.34318347       0.00000000       0.00013108      -0.00002890
Si      11.60572729       8.93409304       5.13285319       0.00000000       0.00003858      -0.00006303
Si      11.60572729       8.93409304       7.50186235      -0.00000000       0.00013148      -0.00010086
Si      11.60572729      11.16761630       8.29153207       0.00000000       0.00001655      -0.00000396
Si       0.00000000      11.16761630      10.66054124       0.00000000       0.00004447      -0.00002793
Si       1.93428788       7.81733141       8.29153207      -0.00003903       0.00002741      -0.00006378
Si       1.93428788       7.81733141      10.66054124       0.00001478       0.00003160      -0.00000772
Si       1.93428788      10.05085467       1.97417430      -0.00006853       0.00007887       0.00000043
Si       1.93428788      10.05085467       4.34318347      -0.00001135       0.00000459      -0.00009823
Si       1.93428788      12.28437793       5.13285319      -0.00006170       0.00001028       0.00006203
Si       1.93428788      12.28437793       7.50186235      -0.00008531       0.00007291       0.00007512
Si       3.86857576       6.70056978       1.97417430       0.00003215      -0.00002891       0.00017168
Si       3.86857576       6.70056978       4.34318347      -0.00010552      -0.00004731      -0.00012292
Si       3.86857576       8.93409304       5.13285319       0.00001457       0.00002863       0.00005353
Si       3.86857576       8.93409304       7.50186235       0.00001959      -0.00007097      -0.00015208
Si       3.86857576      11.16761630       8.29153207      -0.00004692       0.00001463      -0.00000975
Si       3.86857576      11.16761630      10.66054124      -0.00005388      -0.00002629       0.00002040
Si       5.80286365       7.81733141       8.29153207      -0.00000000       0.00001818      -0.00003359
Si       5.80286365       7.81733141      10.66054124       0.00000000      -0.00008665      -0.00011859
Si       5.80286365      10.05085467       1.97417430       0.00000000      -0.00013917       0.00013651
Si       5.80286365      10.05085467       4.34318347      -0.00000000       0.00004631      -0.00003179
Si       5.80286365      12.28437793       5.13285319      -0.00000000      -0.00007039      -0.00001842
Si       5.80286365      12.28437793       7.50186235       0.00000000       0.00002997      -0.00005484
Si       7.73715153       6.70056978       1.97417430      -0.00003215      -0.00002891       0.00017168
Si       7.73715153       6.70056978       4.34318347       0.00010552      -0.00004731      -0.00012292
Si       7.73715153       8.93409304       5.13285319      -0.00001457       0.00002863       0.00005353
Si       7.73715153       8.93409304       7.50186235      -0.00001959      -0.00007097      -0.00015208
Si       7.73715153      11.16761630       8.29153207       0.00004692       0.00001463      -0.00000975
Si       7.73715153      11.16761630      10.66054124       0.00005388      -0.00002629       0.00002040
Si       9.67143941       7.81733141       8.29153207       0.00003903       0.00002741      -0.00006378
Si       9.67143941       7.81733141      10.66054124      -0.00001478       0.00003160      -0.00000772
Si       9.67143941      10.05085467       1.97417430       0.00006853       0.00007887       0.00000043
Si       9.67143941      10.05085467       4.34318347       0.00001135       0.00000459      -0.00009823
Si       9.67143941      12.28437793       5.13285319       0.00006170       0.00001028       0.00006203
Si       9.67143941      12.28437793       7.50186235       0.00008531       0.00007291       0.00007512
Si      11.60572729      13.40113956      11.45021096       0.00000000      -0.00001083       0.00007763
Si      11.60572729      13.40113956      13.81922012       0.00000000      -0.00000598      -0.00005820
Si      11.60572729       2.23352326      14.60888984      -0.00000000       0.00000598       0.00005820
Si      11.60572729       2.23352326      16.97789901      -0.00000000       0.00001083      -0.00007763
Si      11.60572729       4.46704652      17.76756873       0.00000000      -0.00004447       0.00002793
Si       0.00000000       4.46704652      20.13657789       0.00000000      -0.00001655       0.00000396
Si       1.93428788       1.11676163      17.76756873      -0.00008755       0.00001588       0.00002402
Si       1.93428788       1.11676163      20.13657789      -0.00006352       0.00000715      -0.00010520
Si       1.93428788       3.35028489      11.45021096      -0.00002826       0.00003946       0.00000045
Si       1.93428788       3.35028489      13.81922012      -0.00001537       0.00008854      -0.00000272
Si       1.93428788       5.58380815      14.60888984       0.00005103       0.00009195      -0.00001986
Si       1.93428788       5.58380815      16.97789901      -0.00000814       0.00002021      -0.00005677
Si       3.86857576      13.40113956      11.45021096      -0.00001248      -0.00004347       0.00000943
Si       3.86857576      13.40113956      13.81922012       0.00002004      -0.00005396       0.00004808
Si       3.86857576       2.23352326      14.60888984       0.00002004       0.00005396      -0.00004808
Si       3.86857576       2.23352326      16.97789901      -0.00001248       0.00004347      -0.00000943
Si       3.86857576       4.46704652      17.76756873      -0.00005388       0.00002629      -0.00002040
Si       3.86857576       4.46704652      20.13657789      -0.00004692      -0.00001463       0.00000975
Si       5.80286365       1.11676163      17.76756873      -0.00000000       0.00002571       0.00004874
Si       5.80286365       1.11676163      20.13657789       0.00000000      -0.00001139      -0.00000270
Si       5.80286365       3.35028489      11.45021096       0.00000000      -0.00001649       0.00005741
Si       5.80286365       3.35028489      13.81922012      -0.00000000       0.00003372       0.00002652
Si       5.80286365       5.58380815      14.60888984       0.00000000       0.00005397      -0.00011822
Si       5.80286365       5.58380815      16.97789901      -0.00000000       0.00002579       0.00004911
Si       7.73715153      13.40113956      11.45021096       0.00001248      -0.00004347       0.00000943
Si       7.73715153      13.40113956      13.81922012      -0.00002004      -0.00005396       0.00004808
Si       7.73715153       2.23352326      14.60888984      -0.00002004       0.00005396      -0.00004808
Si       7.73715153       2.23352326      16.97789901       0.00001248       0.00004347      -0.00000943
Si       7.73715153       4.46704652      17.76756873       0.00005388       0.00002629      -0.00002040
Si       7.73715153       4.46704652      20.13657789       0.00004692      -0.00001463       0.00000975
Si       9.67143941       1.11676163      17.76756873       0.00008755       0.00001588       0.00002402
Si       9.67143941       1.11676163      20.13657789       0.00006352       0.00000715      -0.00010520
Si       9.67143941       3.35028489      11.45021096       0.00002826       0.00003946       0.00000045
Si       9.67143941       3.35028489      13.81922012       0.00001537       0.00008854      -0.00000272
Si       9.67143941       5.58380815      14.60888984      -0.00005103       0.00009195      -0.00001986
Si       9.67143941       5.58380815      16.97789901       0.00000814       0.00002021      -0.00005677
Si      11.60572729       6.70056978      11.45021096      -0.00000000       0.00003380       0.00000445
Si      11.60572729       6.70056978      13.81922012       0.00000000       0.00003056       0.00002009
Si      11.60572729       8.93409304      14.60888984       0.00000000      -0.00003056      -0.00002009
Si      11.60572729       8.93409304      16.97789901      -0.00000000      -0.00003380      -0.00000445
Si      11.60572729      11.16761630      17.76756873       0.00000000      -0.00005717       0.00002268
Si       0.00000000      11.16761630      20.13657789      -0.00000000       0.00007332      -0.00003901
Si       1.93428788       7.81733141      17.76756873       0.00001478      -0.00003160       0.00000772
Si       1.93428788       7.81733141      20.13657789      -0.00003903      -0.00002741       0.00006378
Si       1.93428788      10.05085467      11.45021096      -0.00000814      -0.00002021       0.00005677
Si       1.93428788      10.05085467      13.81922012       0.00005103      -0.00009195       0.00001986
Si       1.93428788      12.28437793      14.60888984      -0.00001537      -0.00008854       0.00000272
Si       1.93428788      12.28437793      16.97789901      -0.00002826      -0.00003946      -0.00000045
Si       3.86857576       6.70056978      11.45021096      -0.00001957       0.00001847       0.00002560
Si       3.86857576       6.70056978      13.81922012       0.00001145       0.00005431       0.00004433
Si       3.86857576       8.93409304      14.60888984       0.00001145      -0.00005431      -0.00004433
Si       3.86857576       8.93409304      16.97789901      -0.00001957      -0.00001847      -0.00002560
Si       3.86857576      11.16761630      17.76756873      -0.00001796      -0.00000414       0.00004346
Si       3.86857576      11.16761630      20.13657789      -0.00004990       0.00005591       0.00002960
Si       5.80286365       7.81733141      17.76756873      -0.00000000       0.00008665       0.00011859
Si       5.80286365       7.81733141      20.13657789       0.00000000      -0.00001818       0.00003359
Si       5.80286365      10.05085467      11.45021096       0.00000000      -0.00002579      -0.00004911
Si       5.80286365      10.05085467      13.81922012       0.00000000      -0.00005397       0.00011822
Si       5.80286365      12.28437793      14.60888984      -0.00000000      -0.00003372      -0.00002652
Si       5.80286365      12.28437793      16.97789901      -0.00000000       0.00001649      -0.00005741
Si       7.73715153       6.70056978      11.45021096       0.00001957       0.00001847       0.00002560
Si       7.73715153       6.70056978      13.81922012      -0.00001145       0.00005431       0.00004433
Si       7.73715153       8.93409304      14.60888984      -0.00001145      -0.00005431      -0.00004433
Si       7.73715153       8.93409304      16.97789901       0.00001957      -0.00001847      -0.00002560
Si       7.73715153      11.16761630      17.76756873       0.00001796      -0.00000414       0.00004346
Si       7.73715153      11.16761630      20.13657789       0.00004990       0.00005591       0.00002960
Si       9.67143941       7.81733141      17.76756873      -0.00001478      -0.00003160       0.00000772
Si       9.67143941       7.81733141      20.13657789       0.00003903      -0.00002741       0.00006378
Si       9.67143941      10.05085467      11.45021096       0.00000814      -0.00002021       0.00005677
Si       9.67143941      10.05085467      13.81922012      -0.00005103      -0.00009195       0.00001986
Si       9.67143941      12.28437793      14.60888984       0.00001537      -0.00008854       0.00000272
Si       9.67143941      12.28437793      16.97789901       0.00002826      -0.00003946      -0.00000045
