216
Lattice="11.605727294873521 0.0 0.0 0.0 13.401139555673227 0.0 0.0 0.0 28.428109966331448" Properties=species:S:1:pos:R:3:forces:R:3:energies:R:1 energy=-1163.9252347082409 stress="0.003669746445455558 -3.3170585379765753e-18 -9.644692026577424e-19 -3.3170585379765753e-18 0.0036983039155880086 2.071377662837481e-07 -9.644692026577424e-19 2.071377662837481e-07 0.003770024065840226" free_energy=-1163.9252347082409 pbc="T T T"
Si      11.60572729      13.39614969      20.94676687       0.00000000      -0.00013933       0.00001338      -5.38552473
Si       0.00000000      13.39019028      23.31828641      -0.00000000      -0.00001723      -0.00000192      -5.37953439
Si       0.00000000       2.23012612      24.09783166      -0.00000000      -0.00001868      -0.00004769      -5.38411047
Si       0.00000000       2.22833423      26.46504211       0.00000000      -0.00008757       0.00008093      -5.38204081
Si       0.00000000       4.47149955      27.24517773       0.00000000       0.00000910      -0.00011759      -5.37986464
Si       0.00000000       4.47847713       1.17657021      -0.00000000       0.00002164       0.00016996      -5.39954536
Si       1.94655650       1.11373836      27.24553973      -0.00000878       0.00000913      -0.00006945      -5.38214933
Si       1.94655650       1.11978490       1.18257024      -0.00000878      -0.00000913       0.00006945      -5.38214933
Si       1.93457081       3.35133682      20.94182526       0.00003970       0.00001344      -0.00000885      -5.38392623
Si       1.93510881       3.35377473      23.31223128       0.00000045      -0.00004199       0.00002258      -5.38051046
Si       1.94100141       5.58861433      24.10674099       0.00009597       0.00003644      -0.00004568      -5.37837386
Si       1.94841573       5.59404034      26.47542556       0.00004069      -0.00003449       0.00004878      -5.38218416
Si       3.86958311       0.00172987      20.94775047       0.00008964       0.00001726      -0.00004427      -5.38530140
Si       3.87129320       0.00350861      23.31915986       0.00001649       0.00000020       0.00001256      -5.37870155
Si       3.87227389       2.24568200      24.10439846       0.00005640       0.00003742      -0.00004379      -5.38701389
Si       3.87982341       2.26618765      26.46953749      -0.00003595       0.00003288       0.00001938      -5.36928181
Si       3.90830464       4.52833818      27.25272652      -0.00004237      -0.00002342       0.00000602      -5.36471749
Si       3.89960891       4.53135228       1.17216713       0.00004012       0.00000130      -0.00000369      -5.36687720
Si       5.80286365       1.12280217      27.24838270       0.00000000      -0.00002045      -0.00013630      -5.38944168
Si       5.80286365       1.11072109       1.17972726      -0.00000000       0.00002045       0.00013630      -5.38944168
Si       5.80286365       3.36169132      20.95841636      -0.00000000       0.00001929      -0.00001237      -5.38120859
Si       5.80286365       3.38695221      23.34089897      -0.00000000      -0.00002265       0.00010015      -5.36721935
Si       5.80286365       5.63100993      24.18504807      -0.00000000       0.00002172       0.00000184      -5.33748494
Si       5.80286365       5.82755921      26.59867941      -0.00000000       0.00013657       0.00002948      -5.36060467
Si       7.73614419       0.00172987      20.94775047      -0.00008964       0.00001726      -0.00004427      -5.38530140
Si       7.73443409       0.00350861      23.31915986      -0.00001649       0.00000020       0.00001256      -5.37870155
Si       7.73345341       2.24568200      24.10439846      -0.00005640       0.00003742      -0.00004379      -5.38701389
Si       7.72590389       2.26618765      26.46953749       0.00003595       0.00003288       0.00001938      -5.36928181
Si       7.69742266       4.52833818      27.25272652       0.00004237      -0.00002342       0.00000602      -5.36471749
Si       7.70611839       4.53135228       1.17216713      -0.00004012       0.00000130      -0.00000369      -5.36687720
Si       9.65917080       1.11373836      27.24553973       0.00000878       0.00000913      -0.00006945      -5.38214933
Si       9.65917080       1.11978490       1.18257024       0.00000878      -0.00000913       0.00006945      -5.38214933
Si       9.67115649       3.35133682      20.94182526      -0.00003970       0.00001344      -0.00000885      -5.38392623
Si       9.67061849       3.35377473      23.31223128      -0.00000045      -0.00004199       0.00002258      -5.38051046
Si       9.66472588       5.58861433      24.10674099      -0.00009597       0.00003644      -0.00004568      -5.37837386
Si       9.65731156       5.59404034      26.47542556      -0.00004069      -0.00003449       0.00004878      -5.38218416
Si       0.00000000       6.69972110      20.94589227       0.00000000       0.00005873      -0.00007472      -5.38354839
Si       0.00000000       6.69888048      23.31689928      -0.00000000       0.00004814       0.00011492      -5.37967162
Si       0.00000000       8.92687204      24.11476624       0.00000000      -0.00001311      -0.00007389      -5.39006420
Si       0.00000000       8.91881660      26.47843140       0.00000000       0.00001426       0.00002344      -5.35502440
Si       0.00000000      11.15618569      27.25153975      -0.00000000      -0.00002164      -0.00016996      -5.39954536
Si      11.60572729      11.16316327       1.18293223       0.00000000      -0.00000910       0.00011759      -5.37986464
Si       1.99322933       7.82388802      27.25432715       0.00000411      -0.00000922       0.00000589      -5.36231073
Si       1.99322933       7.81077479       1.17378281       0.00000411       0.00000922      -0.00000589      -5.36231073
Si       1.94062300      10.04429033      20.96497162       0.00001295      -0.00002680      -0.00004807      -5.38188655
Si       1.95744370      10.03013606      23.34870916       0.00006456       0.00002844       0.00004117      -5.36612636
Si       1.94159953      12.27451744      24.10907956      -0.00000213      -0.00006974      -0.00006237      -5.38980724
Si       1.95391749      12.25803615      26.47448330       0.00004551       0.00002468      -0.00000402      -5.36670472
Si       3.87155203       6.70292385      20.95667263      -0.00003294      -0.00001335       0.00002867      -5.38324654
Si       3.88037749       6.70896066      23.33522005       0.00001530      -0.00000483       0.00007161      -5.38418544
Si       3.90575261       8.91163542      24.18867382       0.00001273      -0.00000942      -0.00001055      -5.33874629
Si       4.07355130       8.81216262      26.60262031       0.00015188      -0.00003993       0.00001900      -5.35806062
Si       3.89960891      11.10331053      27.25594283       0.00004012      -0.00000130       0.00000369      -5.36687720
Si       3.90830464      11.10632464       1.17538344      -0.00004237       0.00002342      -0.00000602      -5.36471749
B        5.80286365       7.81803199      27.43382377      -0.00000000       0.00003789      -0.00016460      -6.39054622
B        5.80286365       7.81663083       0.99428619      -0.00000000      -0.00003789       0.00016460      -6.39054622
Si       5.80286365      10.04832679      20.96025869      -0.00000000       0.00005799      -0.00001531      -5.38396904
Si       5.80286365      10.03785854      23.33934283      -0.00000000       0.00002722      -0.00005827      -5.38335711
Si       5.80286365      12.27896682      24.11103795      -0.00000000      -0.00004112      -0.00006064      -5.38182238
Si       5.80286365      12.27146902      26.47949746      -0.00000000      -0.00000215      -0.00001311      -5.37943064
Si       7.73417526       6.70292385      20.95667263       0.00003294      -0.00001335       0.00002867      -5.38324654
Si       7.72534980       6.70896066      23.33522005      -0.00001530      -0.00000483       0.00007161      -5.38418544
Si       7.69997468       8.91163542      24.18867382      -0.00001273      -0.00000942      -0.00001055      -5.33874629
Si       7.53217600       8.81216262      26.60262031      -0.00015188      -0.00003993       0.00001900      -5.35806062
Si       7.70611839      11.10331053      27.25594283      -0.00004012      -0.00000130       0.00000369      -5.36687720
Si       7.69742266      11.10632464       1.17538344       0.00004237       0.00002342      -0.00000602      -5.36471749
Si       9.61249796       7.82388802      27.25432715      -0.00000411      -0.00000922       0.00000589      -5.36231073
Si       9.61249796       7.81077479       1.17378281      -0.00000411       0.00000922      -0.00000589      -5.36231073
Si       9.66510430      10.04429033      20.96497162      -0.00001295      -0.00002680      -0.00004807      -5.38188655
Si       9.64828359      10.03013606      23.34870916      -0.00006456       0.00002844       0.00004117      -5.36612636
Si       9.66412777      12.27451744      24.10907956       0.00000213      -0.00006974      -0.00006237      -5.38980724
Si       9.65180981      12.25803615      26.47448330      -0.00004551       0.00002468      -0.00000402      -5.36670472
Si       0.00000000       0.00518903       1.96306786       0.00000000       0.00008757      -0.00008093      -5.38204081
Si       0.00000000       0.00339714       4.33027830      -0.00000000       0.00001868       0.00004769      -5.38411047
Si       0.00000000       2.24447254       5.10982356      -0.00000000       0.00001723       0.00000192      -5.37953439
Si       0.00000000       2.23851313       7.48134309       0.00000000       0.00013933      -0.00001338      -5.38552473
Si       0.00000000       4.47614886       8.26223873       0.00000000      -0.00001305       0.00004227      -5.38013868
Si       0.00000000       4.47011587      10.64026309      -0.00000000      -0.00001421       0.00000915      -5.38258895
Si       1.93389575       1.11795139       8.27562369       0.00000170       0.00001457      -0.00005995      -5.38237595
Si       1.93418670       1.11723458      10.64895321       0.00003226       0.00003214      -0.00001205      -5.38404312
Si       1.95391749       3.37662666       1.95362667       0.00004551      -0.00002468       0.00000402      -5.36670472
Si       1.94159953       3.36014538       4.31903041      -0.00000213       0.00006974       0.00006237      -5.38980724
Si       1.95744370       5.60452675       5.07940081       0.00006456      -0.00002844      -0.00004117      -5.36612636
Si       1.94062300       5.59037248       7.46313834       0.00001295       0.00002680       0.00004807      -5.38188655
Si       3.87982341      13.36847517       1.95857248      -0.00003595      -0.00003288      -0.00001938      -5.36928181
Si       3.87227389      13.38898082       4.32371151       0.00005640      -0.00003742       0.00004379      -5.38701389
Si       3.87129320       2.23001465       5.10895011       0.00001649      -0.00000020      -0.00001256      -5.37870155
Si       3.86958311       2.23179339       7.48035949       0.00008964      -0.00001726       0.00004427      -5.38530140
Si       3.86980314       4.46888981       8.26721254       0.00000157       0.00001564      -0.00000224      -5.38383437
Si       3.86873699       4.46778561      10.64265282       0.00002604      -0.00001139       0.00007586      -5.38344936
Si       5.80286365       1.10924213       8.26994664      -0.00000000       0.00003254      -0.00005415      -5.38088949
Si       5.80286365       1.11454772      10.64550892      -0.00000000      -0.00003460      -0.00004999      -5.38346978
Si       5.80286365       3.36319379       1.94861251      -0.00000000       0.00000215       0.00001311      -5.37943064
Si       5.80286365       3.35569599       4.31707201      -0.00000000       0.00004112       0.00006064      -5.38182238
Si       5.80286365       5.59680428       5.08876714      -0.00000000      -0.00002722       0.00005827      -5.38335711
Si       5.80286365       5.58633603       7.46785128       0.00000000      -0.00005799       0.00001531      -5.38396904
Si       7.72590389      13.36847517       1.95857248       0.00003595      -0.00003288      -0.00001938      -5.36928181
Si       7.73345341      13.38898082       4.32371151      -0.00005640      -0.00003742       0.00004379      -5.38701389
Si       7.73443409       2.23001465       5.10895011      -0.00001649      -0.00000020      -0.00001256      -5.37870155
Si       7.73614419       2.23179339       7.48035949      -0.00008964      -0.00001726       0.00004427      -5.38530140
Si       7.73592415       4.46888981       8.26721254      -0.00000157       0.00001564      -0.00000224      -5.38383437
Si       7.73699030       4.46778561      10.64265282      -0.00002604      -0.00001139       0.00007586      -5.38344936
Si       9.67183154       1.11795139       8.27562369      -0.00000170       0.00001457      -0.00005995      -5.38237595
Si       9.67154060       1.11723458      10.64895321      -0.00003226       0.00003214      -0.00001205      -5.38404312
Si       9.65180981       3.37662666       1.95362667      -0.00004551      -0.00002468       0.00000402      -5.36670472
Si       9.66412777       3.36014538       4.31903041       0.00000213       0.00006974       0.00006237      -5.38980724
Si       9.64828359       5.60452675       5.07940081      -0.00006456      -0.00002844      -0.00004117      -5.36612636
Si       9.66510430       5.59037248       7.46313834      -0.00001295       0.00002680       0.00004807      -5.38188655
Si       0.00000000       6.71584622       1.94967856      -0.00000000      -0.00001426      -0.00002344      -5.35502440
Si       0.00000000       6.70779078       4.31334372      -0.00000000       0.00001311       0.00007389      -5.39006420
Si       0.00000000       8.93578233       5.11121069      -0.00000000      -0.00004814      -0.00011492      -5.37967162
Si       0.00000000       8.93494171       7.48221770       0.00000000      -0.00005873       0.00007472      -5.38354839
Si       0.00000000      11.16724084       8.27886072       0.00000000       0.00006925      -0.00006507      -5.38269816
Si      11.60572729      11.16712818      10.65141857       0.00000000       0.00002629      -0.00006724      -5.38378562
Si       1.93677255       7.81856580       8.27017404       0.00000514      -0.00007564       0.00004109      -5.38470540
Si       1.93508155       7.81743904      10.64510819       0.00002528      -0.00003416      -0.00002544      -5.38317789
Si       1.94841573      10.04062247       1.95268441       0.00004069       0.00003449      -0.00004878      -5.38218416
Si       1.94100141      10.04604848       4.32136897       0.00009597      -0.00003644       0.00004568      -5.37837386
Si       1.93510881      12.28088808       5.11587869       0.00000045       0.00004199      -0.00002258      -5.38051046
Si       1.93457081      12.28332600       7.48628471       0.00003970      -0.00001344       0.00000885      -5.38392623
Si       4.07355130       6.82250019       1.82548965       0.00015188       0.00003993      -0.00001900      -5.35806062
Si       3.90575261       6.72302740       4.23943615       0.00001273       0.00000942       0.00001055      -5.33874629
Si       3.88037749       8.92570216       5.09288992       0.00001530       0.00000483      -0.00007161      -5.38418544
Si       3.87155203       8.93173896       7.47143733      -0.00003294       0.00001335      -0.00002867      -5.38324654
Si       3.86946364      11.16328254       8.27324955       0.00000508       0.00005085      -0.00007151      -5.38433948
Si       3.86911511      11.16627725      10.64776834       0.00003176       0.00001096      -0.00009719      -5.38332842
Si       5.80286365       7.81607212       8.26779151      -0.00000000      -0.00007875      -0.00001186      -5.39174911
Si       5.80286365       7.81693275      10.64295272      -0.00000000       0.00001787       0.00003361      -5.38304786
Si       5.80286365       9.80710360       1.82943055      -0.00000000      -0.00013657      -0.00002948      -5.36060467
Si       5.80286365      10.00365288       4.24306190       0.00000000      -0.00002172      -0.00000184      -5.33748494
Si       5.80286365      12.24771060       5.08721099       0.00000000       0.00002265      -0.00010015      -5.36721935
Si       5.80286365      12.27297150       7.46969361       0.00000000      -0.00001929       0.00001237      -5.38120859
Si       7.53217600       6.82250019       1.82548965      -0.00015188       0.00003993      -0.00001900      -5.35806062
Si       7.69997468       6.72302740       4.23943615      -0.00001273       0.00000942       0.00001055      -5.33874629
Si       7.72534980       8.92570216       5.09288992      -0.00001530       0.00000483      -0.00007161      -5.38418544
Si       7.73417526       8.93173896       7.47143733       0.00003294       0.00001335      -0.00002867      -5.38324654
Si       7.73626365      11.16328254       8.27324955      -0.00000508       0.00005085      -0.00007151      -5.38433948
Si       7.73661218      11.16627725      10.64776834      -0.00003176       0.00001096      -0.00009719      -5.38332842
Si       9.66895475       7.81856580       8.27017404      -0.00000514      -0.00007564       0.00004109      -5.38470540
Si       9.67064575       7.81743904      10.64510819      -0.00002528      -0.00003416      -0.00002544      -5.38317789
Si       9.65731156      10.04062247       1.95268441      -0.00004069       0.00003449      -0.00004878      -5.38218416
Si       9.66472588      10.04604848       4.32136897      -0.00009597      -0.00003644       0.00004568      -5.37837386
Si       9.67061849      12.28088808       5.11587869      -0.00000045       0.00004199      -0.00002258      -5.38051046
Si       9.67115649      12.28332600       7.48628471      -0.00003970      -0.00001344       0.00000885      -5.38392623
Si       0.00000000       0.00019598      11.44438200       0.00000000       0.00002029      -0.00002546      -5.38303000
Si       0.00000000      13.40056582      13.81854934       0.00000000      -0.00001128       0.00001323      -5.38367160
Si       0.00000000       2.23409699      14.60956062       0.00000000       0.00001128      -0.00001323      -5.38367160
Si       0.00000000       2.23332728      16.98372797       0.00000000      -0.00002029       0.00002546      -5.38303000
Si       0.00000000       4.46753464      17.77669140      -0.00000000      -0.00002629       0.00006724      -5.38378562
Si       0.00000000       4.46742197      20.14924925      -0.00000000      -0.00006925       0.00006507      -5.38269816
Si       1.93418670       1.11628868      17.77915675       0.00003226      -0.00003214       0.00001205      -5.38404312
Si       1.93389575       1.11557187      20.15248628       0.00000170      -0.00001457       0.00005995      -5.38237595
Si       1.93380306       3.35233068      11.43874704      -0.00003337       0.00001010      -0.00001122      -5.38327634
Si       1.93429461       3.35113991      13.81411226      -0.00000749      -0.00002696       0.00005078      -5.38315888
Si       1.93452234       5.58447986      14.60962945      -0.00003339      -0.00002833      -0.00002238      -5.38365091
Si       1.93487849       5.58462751      16.98447190      -0.00000667      -0.00001362       0.00002949      -5.38317938
Si       3.86865887      13.40017445      11.44270473      -0.00002685       0.00000834      -0.00001637      -5.38314850
Si       3.86856534      13.40061816      13.81779111      -0.00005166       0.00006472      -0.00003248      -5.38344097
Si       3.86856534       2.23404466      14.61031886      -0.00005166      -0.00006472       0.00003248      -5.38344097
Si       3.86865887       2.23448837      16.98540524      -0.00002685      -0.00000834       0.00001637      -5.38314850
Si       3.86911511       4.46838557      17.78034162       0.00003176      -0.00001096       0.00009719      -5.38332842
Si       3.86946364       4.47138028      20.15486042       0.00000508      -0.00005085       0.00007151      -5.38433948
Si       5.80286365       1.11897554      17.78260105      -0.00000000       0.00003460       0.00004999      -5.38346978
Si       5.80286365       1.12428112      20.15816333       0.00000000      -0.00003254       0.00005415      -5.38088949
Si       5.80286365       3.34985232      11.43853926       0.00000000      -0.00006293      -0.00004275      -5.38290253
Si       5.80286365       3.35059109      13.81427797       0.00000000      -0.00001547       0.00010445      -5.38329317
Si       5.80286365       5.58415679      14.61043253       0.00000000      -0.00005011       0.00016208      -5.38350628
Si       5.80286365       5.58526684      16.98570956      -0.00000000      -0.00002605       0.00005664      -5.38371681
Si       7.73706843      13.40017445      11.44270473       0.00002685       0.00000834      -0.00001637      -5.38314850
Si       7.73716196      13.40061816      13.81779111       0.00005166       0.00006472      -0.00003248      -5.38344097
Si       7.73716196       2.23404466      14.61031886       0.00005166      -0.00006472       0.00003248      -5.38344097
Si       7.73706843       2.23448837      16.98540524       0.00002685      -0.00000834       0.00001637      -5.38314850
Si       7.73661218       4.46838557      17.78034162      -0.00003176      -0.00001096       0.00009719      -5.38332842
Si       7.73626365       4.47138028      20.15486042      -0.00000508      -0.00005085       0.00007151      -5.38433948
Si       9.67154060       1.11628868      17.77915675      -0.00003226      -0.00003214       0.00001205      -5.38404312
Si       9.67183154       1.11557187      20.15248628      -0.00000170      -0.00001457       0.00005995      -5.38237595
Si       9.67192423       3.35233068      11.43874704       0.00003337       0.00001010      -0.00001122      -5.38327634
Si       9.67143269       3.35113991      13.81411226       0.00000749      -0.00002696       0.00005078      -5.38315888
Si       9.67120496       5.58447986      14.60962945       0.00003339      -0.00002833      -0.00002238      -5.38365091
Si       9.67084880       5.58462751      16.98447190       0.00000667      -0.00001362       0.00002949      -5.38317938
Si       0.00000000       6.70164394      11.43939196      -0.00000000       0.00000359       0.00002651      -5.38386490
Si       0.00000000       6.70105546      13.81484113      -0.00000000      -0.00002318       0.00012750      -5.38318141
Si       0.00000000       8.93360735      14.61326884      -0.00000000       0.00002318      -0.00012750      -5.38318141
Si       0.00000000       8.93301887      16.98871801      -0.00000000      -0.00000359      -0.00002651      -5.38386490
Si       0.00000000      11.16454694      17.78784688      -0.00000000       0.00001421      -0.00000915      -5.38258895
Si       0.00000000      11.15851395      20.16587124      -0.00000000       0.00001305      -0.00004227      -5.38013868
Si       1.93508155       7.81722378      17.78300178       0.00002528       0.00003416       0.00002544      -5.38317789
Si       1.93677255       7.81609702      20.15793592       0.00000514       0.00007564      -0.00004109      -5.38470540
Si       1.93487849      10.05003530      11.44363807      -0.00000667       0.00001362      -0.00002949      -5.38317938
Si       1.93452234      10.05018295      13.81848052      -0.00003339       0.00002833       0.00002238      -5.38365091
Si       1.93429461      12.28352291      14.61399770      -0.00000749       0.00002696      -0.00005078      -5.38315888
Si       1.93380306      12.28233214      16.98936293      -0.00003337      -0.00001010       0.00001122      -5.38327634
Si       3.86911094       6.70058656      11.43962374      -0.00000709      -0.00002893      -0.00004496      -5.38390750
Si       3.86893973       6.70097205      13.81496099       0.00000900      -0.00006707       0.00003926      -5.38340633
Si       3.86893973       8.93369076      14.61314897       0.00000900       0.00006707      -0.00003926      -5.38340633
Si       3.86911094       8.93407626      16.98848623      -0.00000709       0.00002893       0.00004496      -5.38390750
Si       3.86873699      11.16687721      17.78545714       0.00002604       0.00001139      -0.00007586      -5.38344936
Si       3.86980314      11.16577300      20.16089743       0.00000157      -0.00001564       0.00000224      -5.38383437
Si       5.80286365       7.81773007      17.78515725      -0.00000000      -0.00001787      -0.00003361      -5.38304786
Si       5.80286365       7.81859070      20.16031845       0.00000000       0.00007875       0.00001186      -5.39174911
Si       5.80286365      10.04939598      11.44240041      -0.00000000       0.00002605      -0.00005664      -5.38371681
Si       5.80286365      10.05050603      13.81767743      -0.00000000       0.00005011      -0.00016208      -5.38350628
Si       5.80286365      12.28407172      14.61383200       0.00000000       0.00001547      -0.00010445      -5.38329317
Si       5.80286365      12.28481049      16.98957071      -0.00000000       0.00006293       0.00004275      -5.38290253
Si       7.73661635       6.70058656      11.43962374       0.00000709      -0.00002893      -0.00004496      -5.38390750
Si       7.73678757       6.70097205      13.81496099      -0.00000900      -0.00006707       0.00003926      -5.38340633
Si       7.73678757       8.93369076      14.61314897      -0.00000900       0.00006707      -0.00003926      -5.38340633
Si       7.73661635       8.93407626      16.98848623       0.00000709       0.00002893       0.00004496      -5.38390750
Si       7.73699030      11.16687721      17.78545714      -0.00002604       0.00001139      -0.00007586      -5.38344936
Si       7.73592415      11.16577300      20.16089743      -0.00000157      -0.00001564       0.00000224      -5.38383437
Si       9.67064575       7.81722378      17.78300178      -0.00002528       0.00003416       0.00002544      -5.38317789
Si       9.66895475       7.81609702      20.15793592      -0.00000514       0.00007564      -0.00004109      -5.38470540
Si       9.67084880      10.05003530      11.44363807       0.00000667       0.00001362      -0.00002949      -5.38317938
Si       9.67120496      10.05018295      13.81848052       0.00003339       0.00002833       0.00002238      -5.38365091
Si       9.67143269      12.28352291      14.61399770       0.00000749       0.00002696      -0.00005078      -5.38315888
Si       9.67192423      12.28233214      16.98936293       0.00003337      -0.00001010       0.00001122      -5.38327634
