216
Lattice="11.605727294873521 0.0 0.0 0.0 13.401139555673227 0.0 0.0 0.0 28.428109966331448" Properties=species:S:1:pos:R:3:forces:R:3 energy=-1163.5300644728968 free_energy=-1163.5300644728968 pbc="T T T"
Si       0.00000000       0.00000000      20.92624761       0.00000000       0.00001420       0.00004690
Si      11.60572729      13.40113956      23.29525678      -0.00000000      -0.00014598      -0.00003272
Si      11.60572729       2.23352326      24.08492650       0.00000000      -0.00003134       0.00005365
Si      11.60572729       2.23352326      26.45393566       0.00000000      -0.00003270      -0.00001559
Si      11.60572729       4.46704652      27.24360538      -0.00000000      -0.00010828       0.00009493
Si       0.00000000       4.46704652       1.18450458      -0.00000000       0.00004402       0.00007025
Si       1.93428788       1.11676163      27.24360538       0.00003550      -0.00003695      -0.00004863
Si       1.93428788       1.11676163       1.18450458       0.00012635      -0.00001187      -0.00001183
Si       1.93428788       3.35028489      20.92624761      -0.00002470      -0.00006222       0.00010833
Si       1.93428788       3.35028489      23.29525678       0.00005709       0.00000521      -0.00000105
Si       1.93428788       5.58380815      24.08492650      -0.00003859      -0.00006902       0.00007475
Si       1.93428788       5.58380815      26.45393566       0.00002942       0.00004840       0.00002760
Si       3.86857576      13.40113956      20.92624761      -0.00004561       0.00000847       0.00005745
Si       3.86857576      13.40113956      23.29525678       0.00000849       0.00003591      -0.00013537
Si       3.86857576       2.23352326      24.08492650      -0.00002094      -0.00001794       0.00003043
Si       3.86857576       2.23352326      26.45393566       0.00007629       0.00001588      -0.00005203
Si       3.86857576       4.46704652      27.24360538       0.00003762       0.00002282       0.00000361
Si       3.86857576       4.46704652       1.18450458       0.00002930      -0.00001377       0.00007128
Si       5.80286365       1.11676163      27.24360538       0.00000000       0.00003562       0.00002310
Si       5.80286365       1.11676163       1.18450458      -0.00000000      -0.00001025       0.00000028
Si       5.80286365       3.35028489      20.92624761       0.00000000      -0.00005252       0.00011741
Si       5.80286365       3.35028489      23.29525678       0.00000000       0.00007122      -0.00006225
Si       5.80286365       5.58380815      24.08492650      -0.00000000      -0.00000600       0.00005992
Si       5.80286365       5.58380815      26.45393566      -0.00000000      -0.00009447      -0.00002836
Si       7.73715153      13.40113956      20.92624761       0.00004561       0.00000847       0.00005745
Si       7.73715153      13.40113956      23.29525678      -0.00000849       0.00003591      -0.00013537
Si       7.73715153       2.23352326      24.08492650       0.00002094      -0.00001794       0.00003043
Si       7.73715153       2.23352326      26.45393566      -0.00007629       0.00001588      -0.00005203
Si       7.73715153       4.46704652      27.24360538      -0.00003762       0.00002282       0.00000361
Si       7.73715153       4.46704652       1.18450458      -0.00002930      -0.00001377       0.00007128
Si       9.67143941       1.11676163      27.24360538      -0.00003550      -0.00003695      -0.00004863
Si       9.67143941       1.11676163       1.18450458      -0.00012635      -0.00001187      -0.00001183
Si       9.67143941       3.35028489      20.92624761       0.00002470      -0.00006222       0.00010833
Si       9.67143941       3.35028489      23.29525678      -0.00005709       0.00000521      -0.00000105
Si       9.67143941       5.58380815      24.08492650       0.00003859      -0.00006902       0.00007475
Si       9.67143941       5.58380815      26.45393566      -0.00002942       0.00004840       0.00002760
Si      11.60572729       6.70056978      20.92624761       0.00000000       0.00000136       0.00013377
Si      11.60572729       6.70056978      23.29525678       0.00000000       0.00004198      -0.00005122
Si      11.60572729       8.93409304      24.08492650      -0.00000000       0.00009102       0.00008415
Si      11.60572729       8.93409304      26.45393566      -0.00000000      -0.00011336      -0.00001793
Si      11.60572729      11.16761630      27.24360538       0.00000000       0.00010061       0.00003807
Si       0.00000000      11.16761630       1.18450458      -0.00000000      -0.00004786       0.00004865
Si       1.93428788       7.81733141      27.24360538       0.00004611       0.00001286      -0.00002233
Si       1.93428788       7.81733141       1.18450458      -0.00006853      -0.00001944       0.00005909
Si       1.93428788      10.05085467      20.92624761      -0.00001664       0.00005076       0.00007069
Si       1.93428788      10.05085467      23.29525678      -0.00003057      -0.00003522      -0.00006193
Si       1.93428788      12.28437793      24.08492650       0.00002723       0.00002310       0.00003159
Si       1.93428788      12.28437793      26.45393566       0.00004752      -0.00002004      -0.00006913
Si       3.86857576       6.70056978      20.92624761       0.00001039       0.00001451       0.00005390
Si       3.86857576       6.70056978      23.29525678       0.00000985      -0.00004695      -0.00005914
Si       3.86857576       8.93409304      24.08492650       0.00005445       0.00004022       0.00000777
Si       3.86857576       8.93409304      26.45393566      -0.00012634       0.00000111      -0.00004011
Si       3.86857576      11.16761630      27.24360538       0.00001882       0.00001846      -0.00002824
Si       3.86857576      11.16761630       1.18450458       0.00003256       0.00001628      -0.00006066
B        5.80286365       7.81733141      27.24360538       0.00000000      -0.00001622       0.00004622
B        5.80286365       7.81733141       1.18450458      -0.00000000       0.00001121       0.00013085
Si       5.80286365      10.05085467      20.92624761      -0.00000000       0.00001770       0.00001202
Si       5.80286365      10.05085467      23.29525678       0.00000000       0.00006982      -0.00013232
Si       5.80286365      12.28437793      24.08492650       0.00000000       0.00001039      -0.00006605
Si       5.80286365      12.28437793      26.45393566      -0.00000000       0.00008913      -0.00011351
Si       7.73715153       6.70056978      20.92624761      -0.00001039       0.00001451       0.00005390
Si       7.73715153       6.70056978      23.29525678      -0.00000985      -0.00004695      -0.00005914
Si       7.73715153       8.93409304      24.08492650      -0.00005445       0.00004022       0.00000777
Si       7.73715153       8.93409304      26.45393566       0.00012634       0.00000111      -0.00004011
Si       7.73715153      11.16761630      27.24360538      -0.00001882       0.00001846      -0.00002824
Si       7.73715153      11.16761630       1.18450458      -0.00003256       0.00001628      -0.00006066
Si       9.67143941       7.81733141      27.24360538      -0.00004611       0.00001286      -0.00002233
Si       9.67143941       7.81733141       1.18450458       0.00006853      -0.00001944       0.00005909
Si       9.67143941      10.05085467      20.92624761       0.00001664       0.00005076       0.00007069
Si       9.67143941      10.05085467      23.29525678       0.00003057      -0.00003522      -0.00006193
Si       9.67143941      12.28437793      24.08492650      -0.00002723       0.00002310       0.00003159
Si       9.67143941      12.28437793      26.45393566      -0.00004752      -0.00002004      -0.00006913
Si      11.60572729      13.40113956       1.97417430       0.00000000      -0.00003124      -0.00002418
Si      11.60572729      13.40113956       4.34318347       0.00000000       0.00002823       0.00004145
Si      11.60572729       2.23352326       5.13285319      -0.00000000      -0.00004637      -0.00008088
Si      11.60572729       2.23352326       7.50186235       0.00000000      -0.00004487       0.00003679
Si      11.60572729       4.46704652       8.29153207      -0.00000000      -0.00007032      -0.00010489
Si       0.00000000       4.46704652      10.66054124       0.00000000      -0.00002333       0.00006086
Si       1.93428788       1.11676163       8.29153207      -0.00007563       0.00004075      -0.00014224
Si       1.93428788       1.11676163      10.66054124      -0.00005032       0.00001550      -0.00005956
Si       1.93428788       3.35028489       1.97417430      -0.00005772      -0.00000084      -0.00003950
Si       1.93428788       3.35028489       4.34318347       0.00010795      -0.00000765       0.00005364
Si       1.93428788       5.58380815       5.13285319       0.00003624      -0.00003717      -0.00004622
Si       1.93428788       5.58380815       7.50186235       0.00000889      -0.00008017       0.00002619
Si       3.86857576      13.40113956       1.97417430       0.00006226       0.00006124      -0.00006719
Si       3.86857576      13.40113956       4.34318347       0.00006760       0.00004381       0.00002276
Si       3.86857576       2.23352326       5.13285319       0.00001250       0.00001091      -0.00009712
Si       3.86857576       2.23352326       7.50186235      -0.00002497       0.00003277       0.00001002
Si       3.86857576       4.46704652       8.29153207      -0.00006981      -0.00004838      -0.00006614
Si       3.86857576       4.46704652      10.66054124      -0.00001809       0.00001806       0.00006897
Si       5.80286365       1.11676163       8.29153207       0.00000000       0.00003657      -0.00008376
Si       5.80286365       1.11676163      10.66054124      -0.00000000       0.00008409       0.00003613
Si       5.80286365       3.35028489       1.97417430       0.00000000      -0.00006214      -0.00000126
Si       5.80286365       3.35028489       4.34318347      -0.00000000      -0.00007980       0.00011448
Si       5.80286365       5.58380815       5.13285319       0.00000000       0.00000086      -0.00007710
Si       5.80286365       5.58380815       7.50186235       0.00000000       0.00000945       0.00011786
Si       7.73715153      13.40113956       1.97417430      -0.00006226       0.00006124      -0.00006719
Si       7.73715153      13.40113956       4.34318347      -0.00006760       0.00004381       0.00002276
Si       7.73715153       2.23352326       5.13285319      -0.00001250       0.00001091      -0.00009712
Si       7.73715153       2.23352326       7.50186235       0.00002497       0.00003277       0.00001002
Si       7.73715153       4.46704652       8.29153207       0.00006981      -0.00004838      -0.00006614
Si       7.73715153       4.46704652      10.66054124       0.00001809       0.00001806       0.00006897
Si       9.67143941       1.11676163       8.29153207       0.00007563       0.00004075      -0.00014224
Si       9.67143941       1.11676163      10.66054124       0.00005032       0.00001550      -0.00005956
Si       9.67143941       3.35028489       1.97417430       0.00005772      -0.00000084      -0.00003950
Si       9.67143941       3.35028489       4.34318347      -0.00010795      -0.00000765       0.00005364
Si       9.67143941       5.58380815       5.13285319      -0.00003624      -0.00003717      -0.00004622
Si       9.67143941       5.58380815       7.50186235      -0.00000889      -0.00008017       0.00002619
Si      11.60572729       6.70056978       1.97417430      -0.00000000      -0.00018087      -0.00001784
Si      11.60572729       6.70056978       4.34318347       0.00000000       0.00002652       0.00006994
Si      11.60572729       8.93409304       5.13285319      -0.00000000       0.00001561      -0.00003005
Si      11.60572729       8.93409304       7.50186235      -0.00000000      -0.00000671       0.00003337
Si      11.60572729      11.16761630       8.29153207      -0.00000000      -0.00001281      -0.00009735
Si       0.00000000      11.16761630      10.66054124       0.00000000      -0.00001216       0.00003247
Si       1.93428788       7.81733141       8.29153207      -0.00003376      -0.00002182      -0.00002338
Si       1.93428788       7.81733141      10.66054124      -0.00001905      -0.00004938       0.00016290
Si       1.93428788      10.05085467       1.97417430      -0.00009787       0.00012382      -0.00003163
Si       1.93428788      10.05085467       4.34318347      -0.00003989      -0.00004570       0.00007593
Si       1.93428788      12.28437793       5.13285319      -0.00001786       0.00004759      -0.00009037
Si       1.93428788      12.28437793       7.50186235      -0.00003869       0.00006056       0.00004743
Si       3.86857576       6.70056978       1.97417430       0.00005286      -0.00000087       0.00000087
Si       3.86857576       6.70056978       4.34318347       0.00000565       0.00000871       0.00010763
Si       3.86857576       8.93409304       5.13285319      -0.00002358      -0.00000757      -0.00004712
Si       3.86857576       8.93409304       7.50186235       0.00000835      -0.00002262       0.00004420
Si       3.86857576      11.16761630       8.29153207      -0.00003427       0.00002824      -0.00006572
Si       3.86857576      11.16761630      10.66054124      -0.00005085       0.00001312       0.00003010
Si       5.80286365       7.81733141       8.29153207      -0.00000000       0.00004335       0.00004010
Si       5.80286365       7.81733141      10.66054124      -0.00000000      -0.00005100       0.00008959
Si       5.80286365      10.05085467       1.97417430       0.00000000      -0.00001920      -0.00007314
Si       5.80286365      10.05085467       4.34318347      -0.00000000       0.00003262       0.00000223
Si       5.80286365      12.28437793       5.13285319      -0.00000000       0.00001995      -0.00010239
Si       5.80286365      12.28437793       7.50186235       0.00000000       0.00006112      -0.00006645
Si       7.73715153       6.70056978       1.97417430      -0.00005286      -0.00000087       0.00000087
Si       7.73715153       6.70056978       4.34318347      -0.00000565       0.00000871       0.00010763
Si       7.73715153       8.93409304       5.13285319       0.00002358      -0.00000757      -0.00004712
Si       7.73715153       8.93409304       7.50186235      -0.00000835      -0.00002262       0.00004420
Si       7.73715153      11.16761630       8.29153207       0.00003427       0.00002824      -0.00006572
Si       7.73715153      11.16761630      10.66054124       0.00005085       0.00001312       0.00003010
Si       9.67143941       7.81733141       8.29153207       0.00003376      -0.00002182      -0.00002338
Si       9.67143941       7.81733141      10.66054124       0.00001905      -0.00004938       0.00016290
Si       9.67143941      10.05085467       1.97417430       0.00009787       0.00012382      -0.00003163
Si       9.67143941      10.05085467       4.34318347       0.00003989      -0.00004570       0.00007593
Si       9.67143941      12.28437793       5.13285319       0.00001786       0.00004759      -0.00009037
Si       9.67143941      12.28437793       7.50186235       0.00003869       0.00006056       0.00004743
Si      11.60572729      13.40113956      11.45021096      -0.00000000      -0.00001214      -0.00012692
Si      11.60572729      13.40113956      13.81922012       0.00000000       0.00002078      -0.00007055
Si      11.60572729       2.23352326      14.60888984       0.00000000      -0.00002299       0.00005761
Si      11.60572729       2.23352326      16.97789901       0.00000000      -0.00002887      -0.00002904
Si      11.60572729       4.46704652      17.76756873      -0.00000000      -0.00002976       0.00011292
Si       0.00000000       4.46704652      20.13657789       0.00000000       0.00010022       0.00001016
Si       1.93428788       1.11676163      17.76756873      -0.00004972      -0.00002719       0.00009458
Si       1.93428788       1.11676163      20.13657789       0.00005148      -0.00007075      -0.00006399
Si       1.93428788       3.35028489      11.45021096      -0.00000970       0.00002380      -0.00007790
Si       1.93428788       3.35028489      13.81922012      -0.00005473       0.00001643      -0.00001450
Si       1.93428788       5.58380815      14.60888984       0.00001648       0.00000351       0.00012675
Si       1.93428788       5.58380815      16.97789901      -0.00003633      -0.00000775      -0.00001342
Si       3.86857576      13.40113956      11.45021096      -0.00000164      -0.00002442      -0.00012628
Si       3.86857576      13.40113956      13.81922012      -0.00001636      -0.00002954       0.00001457
Si       3.86857576       2.23352326      14.60888984      -0.00000311       0.00003672       0.00006440
Si       3.86857576       2.23352326      16.97789901      -0.00004378      -0.00007811       0.00000018
Si       3.86857576       4.46704652      17.76756873      -0.00004814      -0.00003383       0.00007003
Si       3.86857576       4.46704652      20.13657789       0.00004544      -0.00002499       0.00005208
Si       5.80286365       1.11676163      17.76756873       0.00000000       0.00003666       0.00006038
Si       5.80286365       1.11676163      20.13657789       0.00000000       0.00003256      -0.00003080
Si       5.80286365       3.35028489      11.45021096      -0.00000000       0.00000918       0.00000168
Si       5.80286365       3.35028489      13.81922012      -0.00000000      -0.00003770      -0.00002767
Si       5.80286365       5.58380815      14.60888984       0.00000000       0.00003810       0.00004647
Si       5.80286365       5.58380815      16.97789901       0.00000000      -0.00003940       0.00005081
Si       7.73715153      13.40113956      11.45021096       0.00000164      -0.00002442      -0.00012628
Si       7.73715153      13.40113956      13.81922012       0.00001636      -0.00002954       0.00001457
Si       7.73715153       2.23352326      14.60888984       0.00000311       0.00003672       0.00006440
Si       7.73715153       2.23352326      16.97789901       0.00004378      -0.00007811       0.00000018
Si       7.73715153       4.46704652      17.76756873       0.00004814      -0.00003383       0.00007003
Si       7.73715153       4.46704652      20.13657789      -0.00004544      -0.00002499       0.00005208
Si       9.67143941       1.11676163      17.76756873       0.00004972      -0.00002719       0.00009458
Si       9.67143941       1.11676163      20.13657789      -0.00005148      -0.00007075      -0.00006399
Si       9.67143941       3.35028489      11.45021096       0.00000970       0.00002380      -0.00007790
Si       9.67143941       3.35028489      13.81922012       0.00005473       0.00001643      -0.00001450
Si       9.67143941       5.58380815      14.60888984      -0.00001648       0.00000351       0.00012675
Si       9.67143941       5.58380815      16.97789901       0.00003633      -0.00000775      -0.00001342
Si      11.60572729       6.70056978      11.45021096       0.00000000      -0.00001517      -0.00004710
Si      11.60572729       6.70056978      13.81922012       0.00000000      -0.00000683       0.00006467
Si      11.60572729       8.93409304      14.60888984       0.00000000      -0.00001488       0.00010145
Si      11.60572729       8.93409304      16.97789901       0.00000000       0.00010071      -0.00010260
Si      11.60572729      11.16761630      17.76756873      -0.00000000       0.00000821       0.00003239
Si       0.00000000      11.16761630      20.13657789       0.00000000      -0.00006687      -0.00005126
Si       1.93428788       7.81733141      17.76756873      -0.00005506      -0.00000263       0.00004616
Si       1.93428788       7.81733141      20.13657789      -0.00001261       0.00001667       0.00004224
Si       1.93428788      10.05085467      11.45021096      -0.00001235      -0.00002541      -0.00010938
Si       1.93428788      10.05085467      13.81922012      -0.00002492       0.00000942      -0.00002447
Si       1.93428788      12.28437793      14.60888984      -0.00000238      -0.00001497       0.00004500
Si       1.93428788      12.28437793      16.97789901       0.00000653       0.00005688      -0.00008230
Si       3.86857576       6.70056978      11.45021096      -0.00003033       0.00001692       0.00008580
Si       3.86857576       6.70056978      13.81922012      -0.00004755       0.00001221       0.00007912
Si       3.86857576       8.93409304      14.60888984       0.00000525      -0.00001704      -0.00006011
Si       3.86857576       8.93409304      16.97789901       0.00001167       0.00003439      -0.00009119
Si       3.86857576      11.16761630      17.76756873      -0.00005310       0.00006837       0.00004338
Si       3.86857576      11.16761630      20.13657789      -0.00000802       0.00008006      -0.00010876
Si       5.80286365       7.81733141      17.76756873       0.00000000      -0.00001341       0.00002805
Si       5.80286365       7.81733141      20.13657789       0.00000000      -0.00007592      -0.00007863
Si       5.80286365      10.05085467      11.45021096       0.00000000       0.00002956      -0.00005642
Si       5.80286365      10.05085467      13.81922012      -0.00000000       0.00000934       0.00008718
Si       5.80286365      12.28437793      14.60888984      -0.00000000      -0.00001381      -0.00002693
Si       5.80286365      12.28437793      16.97789901      -0.00000000      -0.00002884      -0.00010694
Si       7.73715153       6.70056978      11.45021096       0.00003033       0.00001692       0.00008580
Si       7.73715153       6.70056978      13.81922012       0.00004755       0.00001221       0.00007912
Si       7.73715153       8.93409304      14.60888984      -0.00000525      -0.00001704      -0.00006011
Si       7.73715153       8.93409304      16.97789901      -0.00001167       0.00003439      -0.00009119
Si       7.73715153      11.16761630      17.76756873       0.00005310       0.00006837       0.00004338
Si       7.73715153      11.16761630      20.13657789       0.00000802       0.00008006      -0.00010876
Si       9.67143941       7.81733141      17.76756873       0.00005506      -0.00000263       0.00004616
Si       9.67143941       7.81733141      20.13657789       0.00001261       0.00001667       0.00004224
Si       9.67143941      10.05085467      11.45021096       0.00001235      -0.00002541      -0.00010938
Si       9.67143941      10.05085467      13.81922012       0.00002492       0.00000942      -0.00002447
Si       9.67143941      12.28437793      14.60888984       0.00000238      -0.00001497       0.00004500
Si       9.67143941      12.28437793      16.97789901      -0.00000653       0.00005688      -0.00008230
