360
Lattice="11.605727294873521 0.0 0.0 0.0 16.412976941613742 0.0 0.0 0.0 38.6857576495784" Properties=species:S:1:pos:R:3 pbc="F F F"
Si       5.31929168       7.52261443      18.42762914
Si       5.31929168       6.15486635     -17.46048520
Si      -4.35214774      -6.15486635     -17.46048520
Si      -4.35214774      -7.52261443     -15.52619732
Si      -2.41785985       7.52261443      18.42762914
Si      -2.41785985       6.15486635     -17.46048520
Si      -0.48357197      -6.15486635     -17.46048520
Si      -0.48357197      -7.52261443     -15.52619732
Si       1.45071591       7.52261443      18.42762914
Si       1.45071591       6.15486635     -17.46048520
Si       3.38500379      -6.15486635     -17.46048520
Si       3.38500379      -7.52261443     -15.52619732
Si       5.31929168      -3.41937020      18.42762914
Si       5.31929168      -4.78711827     -17.46048520
Si      -4.35214774      -0.68387404     -17.46048520
Si      -4.35214774      -2.05162212     -15.52619732
Si      -2.41785985      -3.41937020      18.42762914
Si      -2.41785985      -4.78711827     -17.46048520
Si      -0.48357197      -0.68387404     -17.46048520
Si      -0.48357197      -2.05162212     -15.52619732
Si       1.45071591      -3.41937020      18.42762914
Si       1.45071591      -4.78711827     -17.46048520
Si       3.38500379      -0.68387404     -17.46048520
Si       3.38500379      -2.05162212     -15.52619732
Si       5.31929168       2.05162212      18.42762914
Si       5.31929168       0.68387404     -17.46048520
Si      -4.35214774       4.78711827     -17.46048520
Si      -4.35214774       3.41937020     -15.52619732
Si      -2.41785985       2.05162212      18.42762914
Si      -2.41785985       0.68387404     -17.46048520
Si      -0.48357197       4.78711827     -17.46048520
Si      -0.48357197       3.41937020     -15.52619732
Si       1.45071591       2.05162212      18.42762914
Si       1.45071591       0.68387404     -17.46048520
Si       3.38500379       4.78711827     -17.46048520
Si       3.38500379       3.41937020     -15.52619732
Si       5.31929168       7.52261443     -15.52619732
Si       5.31929168       6.15486635     -13.59190943
Si      -4.35214774      -6.15486635     -13.59190943
Si      -4.35214774      -7.52261443     -11.65762155
Si      -2.41785985       7.52261443     -15.52619732
Si      -2.41785985       6.15486635     -13.59190943
Si      -0.48357197      -6.15486635     -13.59190943
Si      -0.48357197      -7.52261443     -11.65762155
Si       1.45071591       7.52261443     -15.52619732
Si       1.45071591       6.15486635     -13.59190943
Si       3.38500379      -6.15486635     -13.59190943
Si       3.38500379      -7.52261443     -11.65762155
Si       5.31929168      -3.41937020     -15.52619732
Si       5.31929168      -4.78711827     -13.59190943
Si      -4.35214774      -0.68387404     -13.59190943
Si      -4.35214774      -2.05162212     -11.65762155
Si      -2.41785985      -3.41937020     -15.52619732
Si      -2.41785985      -4.78711827     -13.59190943
Si      -0.48357197      -0.68387404     -13.59190943
Si      -0.48357197      -2.05162212     -11.65762155
Si       1.45071591      -3.41937020     -15.52619732
Si       1.45071591      -4.78711827     -13.59190943
Si       3.38500379      -0.68387404     -13.59190943
Si       3.38500379      -2.05162212     -11.65762155
Si       5.31929168       2.05162212     -15.52619732
Si       5.31929168       0.68387404     -13.59190943
Si      -4.35214774       4.78711827     -13.59190943
Si      -4.35214774       3.41937020     -11.65762155
Si      -2.41785985       2.05162212     -15.52619732
Si      -2.41785985       0.68387404     -13.59190943
Si      -0.48357197       4.78711827     -13.59190943
Si      -0.48357197       3.41937020     -11.65762155
Si       1.45071591       2.05162212     -15.52619732
Si       1.45071591       0.68387404     -13.59190943
Si       3.38500379       4.78711827     -13.59190943
Si       3.38500379       3.41937020     -11.65762155
Si       5.31929168       7.52261443     -11.65762155
Si       3.47459284       7.17276060     -10.36322231
Si      -2.50744768      -7.17275838     -10.36322146
Si      -1.92236182      -8.15470955      -8.19774083
Si      -2.41785985       7.52261443     -11.65762155
Si      -2.56389634       6.17138260      -9.78696825
Si      -0.00793089      -5.97871104      -9.96504830
Si       0.26001142      -7.21912866      -8.03148537
Si       1.45071591       7.52261443     -11.65762155
Si       0.97508327       5.97871097      -9.96504642
Si       3.53105068      -6.17138068      -9.78697057
Si       2.69652516      -7.49956657      -7.98355806
Si       5.31929168      -3.41937020     -11.65762155
Si       5.45368409      -4.80739325      -9.77322775
Si      -4.38700197      -0.74346039      -9.76647103
Si      -4.33180034      -2.23346570      -7.98345288
Si      -2.41785985      -3.41937020     -11.65762155
Si      -2.08850326      -4.89128726      -9.87711131
Si      -0.49014395      -0.65812004      -9.79314370
Si      -0.47964907      -2.07388654      -7.94115521
Si       1.45071591      -3.41937020     -11.65762155
Si       1.80786203      -4.62823758      -9.76824872
Si       3.45051865      -0.61456853      -9.81461560
Si       3.55713587      -1.96519012      -7.92165794
Si       5.31929168       2.05162212     -11.65762155
Si       5.35415598       0.74345832      -9.76647397
Si      -4.48652858       4.80739289      -9.77322503
Si      -4.39755340       3.48633838      -7.86247963
Si      -2.41785985       2.05162212     -11.65762155
Si      -2.48336665       0.61456963      -9.81461382
Si      -0.84070931       4.62823778      -9.76824750
Si      -0.61936807       3.21233811      -7.94507936
Si       1.45071591       2.05162212     -11.65762155
Si       1.45729592       0.65812067      -9.79314384
Si       3.05565548       4.89128827      -9.87711168
Si       3.33407430       3.54630321      -7.97619744
Si       2.88951874       8.15471474      -8.19774156
Si       3.96481988       7.22902273      -6.24587162
Si      -2.99765288      -7.22901948      -6.24586465
Si      -1.98803101      -8.22209462      -4.31998813
Si      -1.72936502       7.49956957      -7.98355751
Si      -2.29259594       6.25323738      -6.06221524
Si      -0.13901963      -5.92372732      -6.13986917
Si       0.15399766      -7.21843941      -4.24488465
Si       0.70714789       7.21913050      -8.03148407
Si       1.10618823       5.92372997      -6.13986931
Si       3.25976471      -6.25323402      -6.06221782
Si       2.54462850      -7.57885048      -4.22224766
Si       5.36471508      -3.48633555      -7.86248462
Si       5.25836419      -4.96591167      -6.05637330
Si      -4.39123961      -0.90944560      -6.08077220
Si      -4.35336578      -2.28293862      -4.21324649
Si      -2.36691341      -3.54630225      -7.97619487
Si      -2.26694207      -4.97690206      -6.12591222
Si      -0.50545971      -0.66393740      -6.07151200
Si      -0.50036935      -2.06392219      -4.20146007
Si       1.58652843      -3.21233651      -7.94508057
Si       1.68254255      -4.53743031      -6.05821180
Si       3.52087769      -0.55290127      -6.06376749
Si       3.57763177      -1.95871227      -4.19366697
Si       5.29896158       2.23346701      -7.98345864
Si       5.35840795       0.90944831      -6.08077730
Si      -4.29119558       4.96591538      -6.05636910
Si      -4.31334703       3.61078601      -4.16178529
Si      -2.58997543       1.96519153      -7.92165533
Si      -2.55370940       0.55290398      -6.06376429
Si      -0.71537409       4.53743331      -6.05821108
Si      -0.60939061       3.17017285      -4.19187921
Si       1.44680946       2.07388821      -7.94115616
Si       1.47262794       0.66394013      -6.07151262
Si       3.23411071       4.97690476      -6.12591587
Si       3.35284401       3.57591543      -4.23611539
Si       2.95520656       8.22209812      -4.31999098
Si       4.02482211       7.22571749      -2.42516464
Si      -3.05764337      -7.22571339      -2.42516099
Si      -2.06944072      -8.20353428      -0.48382794
Si      -1.57745294       7.57885513      -4.22224779
Si      -2.19753271       6.30476091      -2.32324645
Si      -0.19885971      -5.91934972      -2.35784640
Si       0.08420448      -7.22008419      -0.46455575
Si       0.81317785       7.21844341      -4.24488485
Si       1.16603963       5.91935446      -2.35784676
Si       3.16471264      -6.30475551      -2.32324760
Si       2.46686814      -7.60597773      -0.46208040
Si       5.28052159      -3.61078179      -4.16178960
Si       5.17337647      -5.03232618      -2.31389433
Si      -4.40330834      -0.90397298      -2.34536642
Si      -4.37905226      -2.25644097      -0.46289853
Si      -2.38566915      -3.57591139      -4.23611258
Si      -2.31701799      -4.97248320      -2.35884602
Si      -0.51872902      -0.65352938      -2.33183953
Si      -0.51841808      -2.05746444      -0.46171993
Si       1.57656547      -3.17016893      -4.19188004
Si       1.63427824      -4.54064304      -2.32671014
Si       3.53515541      -0.56565404      -2.32208049
Si       3.56449108      -1.98037347      -0.45656189
Si       5.32054004       2.28294162      -4.21325132
Si       5.37048657       0.90397838      -2.34536908
Si      -4.20619730       5.03233284      -2.31389245
Si      -4.27497421       3.65900381      -0.43370236
Si      -2.61045714       1.95871659      -4.19366476
Si      -2.56797657       0.56565866      -2.32207872
Si      -0.66709864       4.54064812      -2.32670998
Si      -0.58584174       3.17860152      -0.45460623
Si       1.46754419       2.06392610      -4.20146124
Si       1.48590801       0.65353433      -2.33183995
Si       3.28419752       4.97248702      -2.35884812
Si       3.38544616       3.55774796      -0.47920061
Si       3.03662320       8.20353841      -0.48382922
Si       4.09895746       7.18586782       1.39965430
Si      -3.13177687      -7.18586322       1.39965370
Si      -2.13923682      -8.16206657       3.33833861
Si      -1.49968563       7.60598411      -0.46208077
Si      -2.14486810       6.32608013       1.42449557
Si      -0.24570831      -5.90923981       1.41596944
Si       0.03001158      -7.20992208       3.31052323
Si       0.88297782       7.22008909      -0.46455582
Si       1.21288986       5.90924518       1.41596993
Si       3.11204980      -6.32607370       1.42449631
Si       2.41102493      -7.61414689       3.29409203
Si       5.24215482      -3.65899792      -0.43370314
Si       5.13044757      -5.06912301       1.42150634
Si      -4.41022653      -0.86952927       1.40025444
Si      -4.39698126      -2.21665812       3.28776331
Si      -2.41826512      -3.55774268      -0.47919999
Si      -2.35568583      -4.94552120       1.40943913
Si      -0.52345763      -0.64714513       1.40748218
Si      -0.53177683      -2.04926640       3.27965899
Si       1.55302301      -3.17859607      -0.45460639
Si       1.59959564      -4.54633991       1.41579083
Si       3.53119947      -0.58709492       1.41643071
Si       3.55125389      -2.00025806       3.28278732
Si       5.34623242       2.25644496      -0.46289941
Si       5.37740620       0.86953544       1.40025593
Si      -4.16326672       5.06913087       1.42150507
Si      -4.25145512       3.68850853       3.29551716
Si      -2.59731020       1.98037961      -0.45656159
Si      -2.56401927       0.58710039       1.41642997
Si      -0.63241453       4.54634581       1.41579060
Si      -0.56444446       3.18419424       3.28755008
Si       1.48559917       2.05746966      -0.46172023
Si       1.49063792       0.64715080       1.40748242
Si       3.32286692       4.94552555       1.40943968
Si       3.41177337       3.52934326       3.28337776
Si       3.10641604       8.16207081       3.33833920
Si       4.15722922       7.13655846       5.23027119
Si      -3.19005526      -7.13655454       5.23026788
Si      -2.23006648      -8.06233264       7.20858976
Si      -1.44384544       7.61415326       3.29409181
Si      -2.11272417       6.33422276       5.17240809
Si      -0.28600483      -5.89446534       5.19085808
Si      -0.00927139      -7.20261071       7.08233696
Si       0.93716755       7.20992688       3.31052394
Si       1.25317883       5.89446983       5.19085943
Si       3.07989864      -6.33421653       5.17240966
Si       2.39359696      -7.59673462       7.06171805
Si       5.21863283      -3.68850210       3.29552008
Si       5.10301993      -5.08349581       5.16016735
Si      -4.41357176      -0.83190895       5.15227988
Si      -4.39070179      -2.16872040       7.04804142
Si      -2.44459561      -3.52933818       3.28337604
Si      -2.38767625      -4.90895705       5.18149899
Si      -0.52469079      -0.63689129       5.14334342
Si      -0.52607003      -2.02908094       7.01944749
Si       1.53162225      -3.18418863       3.28755049
Si       1.57412028      -4.55043571       5.16095771
Si       3.52328126      -0.60807188       5.15770359
Si       3.53256117      -2.01337670       7.02861742
Si       5.36415840       2.21666237       3.28776682
Si       5.38074445       0.83191391       5.15228449
Si      -4.13584578       5.08350259       5.16016402
Si      -4.26278502       3.66843331       7.00799656
Si      -2.58407640       2.00026420       3.28278563
Si      -2.55610859       0.60807695       5.15770099
Si      -0.60694686       4.55044100       5.16095740
Si      -0.54518698       3.19632026       7.03810716
Si       1.49895442       2.04927166       3.27965972
Si       1.49186340       0.63689625       5.14334414
Si       3.35484996       4.90896095       5.18150160
Si       3.40303151       3.47899267       7.04225908
Si       3.19723522       8.06233614       7.20859063
Si       4.41025777       6.90075125       8.93141697
Si      -3.44309257      -6.90074920       8.93141617
Si      -2.76646989      -7.33314207      11.17603565
Si      -1.42642773       7.59673947       7.06171886
Si      -2.18054797       6.27062295       8.87908212
Si      -0.28431339      -5.94685513       9.00367380
Si       0.04297103      -7.44921874      10.76598818
Si       0.97644029       7.20261436       7.08233827
Si       1.25147474       5.94685803       9.00367543
Si       3.14770975      -6.27061841       8.87908342
Si       2.48612066      -7.40049564      10.82040159
Si       5.22995276      -3.66842775       7.00800131
Si       5.17020970      -5.02586452       8.89902853
Si      -4.40312257      -0.76795605       8.90235384
Si      -4.41307634      -2.11117980      10.79488703
Si      -2.43586446      -3.47898918       7.04225635
Si      -2.35033069      -4.85040689       8.94481921
Si      -0.50996068      -0.64057955       8.89264986
Si      -0.49918701      -2.04687500      10.75391857
Si       1.51235386      -3.19631565       7.03810766
Si       1.55817493      -4.58129286       8.90091146
Si       3.48272892      -0.63077316       8.91182284
Si       3.46239440      -2.06145939      10.76011074
Si       5.35786858       2.16872364       7.04804735
Si       5.37028232       0.76795844       8.90235918
Si      -4.20304778       5.02586845       8.89902518
Si      -4.33986428       3.51825874      10.68522726
Si      -2.56539437       2.01338130       7.02861494
Si      -2.51556986       0.63077638       8.91181988
Si      -0.59101435       4.58129649       8.90091166
Si      -0.50751873       3.30138136      10.81924442
Si       1.49323655       2.02908491       7.01944886
Si       1.47711946       0.64058214       8.89265036
Si       3.31749206       4.85041054       8.94482125
Si       3.41472909       3.38784178      10.77261831
Si       3.73362212       7.33314717      11.17603039
Si       5.31929168       6.15486635      12.62476549
Si      -4.35214774      -6.15486635      12.62476549
Si      -4.35214774      -7.52261443      14.55905337
Si      -1.51896283       7.40049388      10.82040482
Si      -2.41785985       6.15486635      12.62476549
Si      -0.48357197      -6.15486635      12.62476549
Si      -0.48357197      -7.52261443      14.55905337
Si       0.92419050       7.44922307      10.76598871
Si       1.45071591       6.15486635      12.62476549
Si       3.38500379      -6.15486635      12.62476549
Si       3.38500379      -7.52261443      14.55905337
Si       5.30701813      -3.51825488      10.68523076
Si       5.31929168      -4.78711827      12.62476549
Si      -4.35214774      -0.68387404      12.62476549
Si      -4.35214774      -2.05162212      14.55905337
Si      -2.44757731      -3.38784069      10.77261775
Si      -2.41785985      -4.78711827      12.62476549
Si      -0.48357197      -0.68387404      12.62476549
Si      -0.48357197      -2.05162212      14.55905337
Si       1.47467024      -3.30138018      10.81924518
Si       1.45071591      -4.78711827      12.62476549
Si       3.38500379      -0.68387404      12.62476549
Si       3.38500379      -2.05162212      14.55905337
Si       5.38022924       2.11118321      10.79489125
Si       5.31929168       0.68387404      12.62476549
Si      -4.35214774       4.78711827      12.62476549
Si      -4.35214774       3.41937020      14.55905337
Si      -2.49524275       2.06146020      10.76010987
Si      -2.41785985       0.68387404      12.62476549
Si      -0.48357197       4.78711827      12.62476549
Si      -0.48357197       3.41937020      14.55905337
Si       1.46633859       2.04687639      10.75391939
Si       1.45071591       0.68387404      12.62476549
Si       3.38500379       4.78711827      12.62476549
Si       3.38500379       3.41937020      14.55905337
Si       5.31929168       7.52261443      14.55905337
Si       5.31929168       6.15486635      16.49334126
Si      -4.35214774      -6.15486635      16.49334126
Si      -4.35214774      -7.52261443      18.42762914
Si      -2.41785985       7.52261443      14.55905337
Si      -2.41785985       6.15486635      16.49334126
Si      -0.48357197      -6.15486635      16.49334126
Si      -0.48357197      -7.52261443      18.42762914
Si       1.45071591       7.52261443      14.55905337
Si       1.45071591       6.15486635      16.49334126
Si       3.38500379      -6.15486635      16.49334126
Si       3.38500379      -7.52261443      18.42762914
Si       5.31929168      -3.41937020      14.55905337
Si       5.31929168      -4.78711827      16.49334126
Si      -4.35214774      -0.68387404      16.49334126
Si      -4.35214774      -2.05162212      18.42762914
Si      -2.41785985      -3.41937020      14.55905337
Si      -2.41785985      -4.78711827      16.49334126
Si      -0.48357197      -0.68387404      16.49334126
Si      -0.48357197      -2.05162212      18.42762914
Si       1.45071591      -3.41937020      14.55905337
Si       1.45071591      -4.78711827      16.49334126
Si       3.38500379      -0.68387404      16.49334126
Si       3.38500379      -2.05162212      18.42762914
Si       5.31929168       2.05162212      14.55905337
Si       5.31929168       0.68387404      16.49334126
Si      -4.35214774       4.78711827      16.49334126
Si      -4.35214774       3.41937020      18.42762914
Si      -2.41785985       2.05162212      14.55905337
Si      -2.41785985       0.68387404      16.49334126
Si      -0.48357197       4.78711827      16.49334126
Si      -0.48357197       3.41937020      18.42762914
Si       1.45071591       2.05162212      14.55905337
Si       1.45071591       0.68387404      16.49334126
Si       3.38500379       4.78711827      16.49334126
Si       3.38500379       3.41937020      18.42762914
