360
Lattice="11.605727294873521 0.0 0.0 0.0 16.412976941613742 0.0 0.0 0.0 38.6857576495784" Properties=species:S:1:pos:R:3 pbc="F F F"
Si       5.31929168       7.52261443      18.44102357
Si       5.31929168       6.15486635     -17.47387963
Si      -4.35214774      -6.15486635     -17.47387963
Si      -4.35214774      -7.52261443     -15.53959175
Si      -2.41785985       7.52261443      18.44102357
Si      -2.41785985       6.15486635     -17.47387963
Si      -0.48357197      -6.15486635     -17.47387963
Si      -0.48357197      -7.52261443     -15.53959175
Si       1.45071591       7.52261443      18.44102357
Si       1.45071591       6.15486635     -17.47387963
Si       3.38500379      -6.15486635     -17.47387963
Si       3.38500379      -7.52261443     -15.53959175
Si       5.31929168      -3.41937020      18.44102357
Si       5.31929168      -4.78711827     -17.47387963
Si      -4.35214774      -0.68387404     -17.47387963
Si      -4.35214774      -2.05162212     -15.53959175
Si      -2.41785985      -3.41937020      18.44102357
Si      -2.41785985      -4.78711827     -17.47387963
Si      -0.48357197      -0.68387404     -17.47387963
Si      -0.48357197      -2.05162212     -15.53959175
Si       1.45071591      -3.41937020      18.44102357
Si       1.45071591      -4.78711827     -17.47387963
Si       3.38500379      -0.68387404     -17.47387963
Si       3.38500379      -2.05162212     -15.53959175
Si       5.31929168       2.05162212      18.44102357
Si       5.31929168       0.68387404     -17.47387963
Si      -4.35214774       4.78711827     -17.47387963
Si      -4.35214774       3.41937020     -15.53959175
Si      -2.41785985       2.05162212      18.44102357
Si      -2.41785985       0.68387404     -17.47387963
Si      -0.48357197       4.78711827     -17.47387963
Si      -0.48357197       3.41937020     -15.53959175
Si       1.45071591       2.05162212      18.44102357
Si       1.45071591       0.68387404     -17.47387963
Si       3.38500379       4.78711827     -17.47387963
Si       3.38500379       3.41937020     -15.53959175
Si       5.31929168       7.52261443     -15.53959175
Si       5.31929168       6.15486635     -13.60530387
Si      -4.35214774      -6.15486635     -13.60530387
Si      -4.35214774      -7.52261443     -11.67101599
Si      -2.41785985       7.52261443     -15.53959175
Si      -2.41785985       6.15486635     -13.60530387
Si      -0.48357197      -6.15486635     -13.60530387
Si      -0.48357197      -7.52261443     -11.67101599
Si       1.45071591       7.52261443     -15.53959175
Si       1.45071591       6.15486635     -13.60530387
Si       3.38500379      -6.15486635     -13.60530387
Si       3.38500379      -7.52261443     -11.67101599
Si       5.31929168      -3.41937020     -15.53959175
Si       5.31929168      -4.78711827     -13.60530387
Si      -4.35214774      -0.68387404     -13.60530387
Si      -4.35214774      -2.05162212     -11.67101599
Si      -2.41785985      -3.41937020     -15.53959175
Si      -2.41785985      -4.78711827     -13.60530387
Si      -0.48357197      -0.68387404     -13.60530387
Si      -0.48357197      -2.05162212     -11.67101599
Si       1.45071591      -3.41937020     -15.53959175
Si       1.45071591      -4.78711827     -13.60530387
Si       3.38500379      -0.68387404     -13.60530387
Si       3.38500379      -2.05162212     -11.67101599
Si       5.31929168       2.05162212     -15.53959175
Si       5.31929168       0.68387404     -13.60530387
Si      -4.35214774       4.78711827     -13.60530387
Si      -4.35214774       3.41937020     -11.67101599
Si      -2.41785985       2.05162212     -15.53959175
Si      -2.41785985       0.68387404     -13.60530387
Si      -0.48357197       4.78711827     -13.60530387
Si      -0.48357197       3.41937020     -11.67101599
Si       1.45071591       2.05162212     -15.53959175
Si       1.45071591       0.68387404     -13.60530387
Si       3.38500379       4.78711827     -13.60530387
Si       3.38500379       3.41937020     -11.67101599
Si       5.31929168       7.52261443     -11.67101599
Si       3.47483917       7.17202654     -10.37528770
Si      -2.50768956      -7.17205610     -10.37529562
Si      -1.92296508      -8.15187521      -8.20738933
Si      -2.41785985       7.52261443     -11.67101599
Si      -2.56193220       6.17130657      -9.79917757
Si      -0.00941370      -5.97887018      -9.97673788
Si       0.25881837      -7.21571687      -8.04039000
Si       1.45071591       7.52261443     -11.67101599
Si       0.97658386       5.97884197      -9.97673994
Si       3.52910810      -6.17132288      -9.79918462
Si       2.69483947      -7.49644681      -7.99252842
Si       5.31929168      -3.41937020     -11.67101599
Si       5.45116509      -4.80630861      -9.78475074
Si      -4.38557875      -0.74463363      -9.77827078
Si      -4.33047844      -2.23219322      -7.99266763
Si      -2.41785985      -3.41937020     -11.67101599
Si      -2.08947791      -4.89022263      -9.88872978
Si      -0.49001893      -0.65857849      -9.80505460
Si      -0.47955008      -2.07293686      -7.95100811
Si       1.45071591      -3.41937020     -11.67101599
Si       1.80611861      -4.62747742      -9.78006088
Si       3.45007362      -0.61520277      -9.82633937
Si       3.55625471      -1.96444404      -7.93145228
Si       5.31929168       2.05162212     -11.67101599
Si       5.35274539       0.74458956      -9.77829841
Si      -4.48397794       4.80627325      -9.78472197
Si      -4.39573071       3.48666412      -7.87237235
Si      -2.41785985       2.05162212     -11.67101599
Si      -2.48291330       0.61516937      -9.82634772
Si      -0.83895027       4.62744637      -9.78003497
Si      -0.61885402       3.21242861      -7.95488078
Si       1.45071591       2.05162212     -11.67101599
Si       1.45717739       0.65854284      -9.80506757
Si       3.05664368       4.89019054      -9.88870839
Si       3.33357036       3.54603499      -7.98601787
Si       2.89014613       8.15177561      -8.20734143
Si       3.96359438       7.22694611      -6.25296062
Si      -2.99639321      -7.22708922      -6.25297867
Si      -1.98794441      -8.21872421      -4.32479117
Si      -1.72765138       7.49635186      -7.99246500
Si      -2.29167586       6.25150735      -6.06962567
Si      -0.13977787      -5.92186550      -6.14703638
Si       0.15340061      -7.21407230      -4.24983981
Si       0.70836435       7.21561713      -8.04034307
Si       1.10697350       5.92172375      -6.14701765
Si       3.25886877      -6.25164360      -6.06966614
Si       2.54359912      -7.57496038      -4.22735651
Si       5.36291390      -3.48673841      -7.87237794
Si       5.25698809      -4.96382327      -6.06355073
Si      -4.38983777      -0.90956706      -6.08840748
Si      -4.35237940      -2.28109544      -4.21878175
Si      -2.36639560      -3.54612410      -7.98601075
Si      -2.26726294      -4.97444755      -6.13333178
Si      -0.50519916      -0.66430551      -6.07935315
Si      -0.50028393      -2.06268088      -4.20716681
Si       1.58602675      -3.21250965      -7.95488332
Si       1.68186177      -4.53558293      -6.06578083
Si       3.52004387      -0.55355770      -6.07159513
Si       3.57685205      -1.95760723      -4.19932473
Si       5.29765347       2.23210484      -7.99266314
Si       5.35702770       0.90942732      -6.08843453
Si      -4.28979827       4.96369284      -6.06350359
Si      -4.31206860       3.60990858      -4.16730795
Si      -2.58908072       1.96435810      -7.93143081
Si      -2.55285703       0.55342578      -6.07159652
Si      -0.71467028       4.53544656      -6.06574571
Si      -0.60898398       3.16954519      -4.19755453
Si       1.44672202       2.07285209      -7.95099424
Si       1.47238581       0.66417266      -6.07936368
Si       3.23445771       4.97430859      -6.13330942
Si       3.35255038       3.57470970      -4.24164398
Si       2.95515958       8.21854659      -4.32475355
Si       4.02387274       7.22293928      -2.42819643
Si      -3.05663562      -7.22315690      -2.42819575
Si      -2.06912948      -8.19978666      -0.48514421
Si      -1.57638929       7.57479114      -4.22730321
Si      -2.19697651       6.30238055      -2.32655909
Si      -0.19923625      -5.91670113      -2.36104746
Si       0.08381719      -7.21526980      -0.46574109
Si       0.81381059       7.21390069      -4.24980180
Si       1.16645918       5.91649071      -2.36103905
Si       3.16419449      -6.30258828      -2.32658460
Si       2.46606515      -7.60167847      -0.46325992
Si       5.27927144      -3.61008346      -4.16732513
Si       5.17234523      -5.02957758      -2.31715228
Si      -4.40222594      -0.90404032      -2.34880685
Si      -4.37815606      -2.25456760      -0.46424935
Si      -2.38534091      -3.57489494      -4.24163899
Si      -2.31716696      -4.96953647      -2.36220446
Si      -0.51846452      -0.65385101      -2.33542210
Si      -0.51824850      -2.05607711      -0.46310384
Si       1.57618750      -3.16972341      -4.19756242
Si       1.63403357      -4.53818323      -2.33012907
Si       3.53447108      -0.56615420      -2.32568758
Si       3.56392266      -1.97903069      -0.45790624
Si       5.31959045       2.28091590      -4.21878145
Si       5.36944214       0.90382644      -2.34882779
Si      -4.20513459       5.02938012      -2.31712260
Si      -4.27391328       3.65778952      -0.43499164
Si      -2.60965005       1.95743072      -4.19930254
Si      -2.56725721       0.56594703      -2.32568356
Si      -0.66681527       4.53797742      -2.33010963
Si      -0.58559353       3.17760005      -0.45597883
Si       1.46748732       2.06250470      -4.20715525
Si       1.48567875       0.65364336      -2.33542895
Si       3.28438786       4.96932691      -2.36219792
Si       3.38512781       3.55622606      -0.48053293
Si       3.03637344       8.19956455      -0.48514794
Si       4.09797408       7.18292168       1.40009382
Si      -3.13071438      -7.18316048       1.40012423
Si      -2.13910496      -8.15818111       3.34058321
Si      -1.49883216       7.60147255      -0.46324893
Si      -2.14438886       6.32348733       1.42524696
Si      -0.24601400      -5.90639866       1.41671391
Si       0.02953724      -7.20509251       3.31317167
Si       0.88341883       7.21506065      -0.46573618
Si       1.21325473       5.90617098       1.41670151
Si       3.11162432      -6.32371026       1.42525514
Si       2.41013432      -7.60983180       3.29680160
Si       5.24113649      -3.65801147      -0.43500191
Si       5.12954714      -5.06623438       1.42236349
Si      -4.40924587      -0.86957945       1.40106524
Si      -4.39609532      -2.21469141       3.29070205
Si      -2.41789405      -3.55646027      -0.48052237
Si      -2.35577991      -4.94241549       1.41016889
Si      -0.52319981      -0.64742727       1.40829307
Si      -0.53159365      -2.04780007       3.28268058
Si       1.55282082      -3.17782596      -0.45598038
Si       1.59943180      -4.54370268       1.41658877
Si       3.53058722      -0.58755294       1.41725796
Si       3.55065096      -1.99895008       3.28583668
Si       5.34539085       2.25433930      -0.46425907
Si       5.37647748       0.86934877       1.40105639
Si      -4.16232111       5.06602506       1.42236052
Si      -4.25031403       3.68737615       3.29851037
Si      -2.59669813       1.97880860      -0.45789695
Si      -2.56335765       0.58732889       1.41726301
Si      -0.63219685       4.54348108       1.41658098
Si      -0.56413735       3.18322366       3.29052703
Si       1.48547531       2.05585326      -0.46310419
Si       1.49042982       0.64720261       1.40829064
Si       3.32301765       4.94218743       1.41015121
Si       3.41146674       3.52769973       3.28618270
Si       3.10635974       8.15796956       3.34052821
Si       4.15681820       7.13342653       5.23394868
Si      -3.18956125      -7.13362352       5.23400617
Si      -2.23092307      -8.05843799       7.21402225
Si      -1.44288963       7.60964011       3.29676128
Si      -2.11194145       6.33195948       5.17727031
Si      -0.28652980      -5.89178949       5.19555657
Si      -0.01042767      -7.19819068       7.08885047
Si       0.93770948       7.20489449       3.31313657
Si       1.25376896       5.89160413       5.19552782
Si       3.07917757      -6.33213373       5.17730821
Si       2.39199390      -7.59296116       7.06823416
Si       5.21754545      -3.68757963       3.29851326
Si       5.10182632      -5.08082639       5.16515668
Si      -4.41251861      -0.83179450       5.15734129
Si      -4.38990729      -2.16673643       7.05509165
Si      -2.44422575      -3.52792036       3.28619813
Si      -2.38786667      -4.90578277       5.18626901
Si      -0.52442832      -0.63718250       5.14864904
Si      -0.52599872      -2.02767454       7.02692931
Si       1.53137137      -3.18343357       3.29053410
Si       1.57376554      -4.54798606       5.16601578
Si       3.52256455      -0.60861775       5.16297530
Si       3.53169862      -2.01236348       7.03597332
Si       5.36333696       2.21447660       3.29068551
Si       5.37974663       0.83160890       5.15734683
Si      -4.13459779       5.08066319       5.16512320
Si      -4.26137202       3.66769957       7.01523493
Si      -2.58342007       1.99874448       3.28582809
Si      -2.55533988       0.60844090       5.16297956
Si      -0.60653386       4.54780963       5.16598455
Si      -0.54460976       3.19576317       7.04545242
Si       1.49882685       2.04759131       3.28266708
Si       1.49165324       0.63700509       5.14865184
Si       3.35510266       4.90559558       5.18623213
Si       3.40292647       3.47753836       7.04927611
Si       3.19816803       8.05828677       7.21393229
Si       4.41138986       6.89801535       8.93836653
Si      -3.44414473      -6.89812869       8.93843953
Si      -2.76843333      -7.33104959      11.18361506
Si      -1.42475616       7.59282806       7.06816633
Si      -2.17933830       6.26910943       8.88782296
Si      -0.28558321      -5.94482157       9.01218089
Si       0.04081699      -7.44593339      10.77628121
Si       0.97766583       7.19805020       7.08879119
Si       1.25280152       5.94472336       9.01214886
Si       3.14655037      -6.26919509       8.88786620
Si       2.48416982      -7.39646710      10.83093627
Si       5.22859001      -3.66782777       7.01524699
Si       5.16863767      -5.02400495       8.90780986
Si      -4.40169791      -0.76805129       8.91165478
Si      -4.41180579      -2.10943853      10.80607233
Si      -2.43570119      -3.47768726       7.04928951
Si      -2.35112651      -4.84785660       8.95346803
Si      -0.50978304      -0.64094784       8.90243706
Si      -0.49926925      -2.04613562      10.76569623
Si       1.51182715      -3.19589733       7.04546123
Si       1.55728028      -4.57957184       8.91017942
Si       3.48197965      -0.63159005       8.92136329
Si       3.46174952      -2.06076639      10.77187843
Si       5.35713156       2.16659115       7.05507393
Si       5.36889438       0.76796026       8.91167530
Si      -4.20142913       5.02392495       8.90776656
Si      -4.33813202       3.51927934      10.69710825
Si      -2.56448394       2.01223162       7.03595124
Si      -2.51478678       0.63150803       8.92136672
Si      -0.59007294       4.57948466       8.91014517
Si      -0.50707095       3.30171428      10.83084059
Si       1.49321463       2.02753948       7.02690814
Si       1.47697693       0.64086650       8.90244463
Si       3.31834142       4.84776093       8.95342484
Si       3.41457217       3.38811620      10.78454946
Si       3.73562873       7.33100869      11.18350898
Si       5.31929168       6.15486635      12.63815993
Si      -4.35214774      -6.15486635      12.63815993
Si      -4.35214774      -7.52261443      14.57244781
Si      -1.51695024       7.39637621      10.83089494
Si      -2.41785985       6.15486635      12.63815993
Si      -0.48357197      -6.15486635      12.63815993
Si      -0.48357197      -7.52261443      14.57244781
Si       0.92641941       7.44587537      10.77622390
Si       1.45071591       6.15486635      12.63815993
Si       3.38500379      -6.15486635      12.63815993
Si       3.38500379      -7.52261443      14.57244781
Si       5.30531435      -3.51929927      10.69710548
Si       5.31929168      -4.78711827      12.63815993
Si      -4.35214774      -0.68387404      12.63815993
Si      -4.35214774      -2.05162212      14.57244781
Si      -2.44739865      -3.38814628      10.78454223
Si      -2.41785985      -4.78711827      12.63815993
Si      -0.48357197      -0.68387404      12.63815993
Si      -0.48357197      -2.05162212      14.57244781
Si       1.47424514      -3.30174444      10.83083791
Si       1.45071591      -4.78711827      12.63815993
Si       3.38500379      -0.68387404      12.63815993
Si       3.38500379      -2.05162212      14.57244781
Si       5.37897513       2.10940398      10.80605692
Si       5.31929168       0.68387404      12.63815993
Si      -4.35214774       4.78711827      12.63815993
Si      -4.35214774       3.41937020      14.57244781
Si      -2.49457679       2.06073127      10.77185869
Si      -2.41785985       0.68387404      12.63815993
Si      -0.48357197       4.78711827      12.63815993
Si      -0.48357197       3.41937020      14.57244781
Si       1.46644278       2.04610225      10.76568030
Si       1.45071591       0.68387404      12.63815993
Si       3.38500379       4.78711827      12.63815993
Si       3.38500379       3.41937020      14.57244781
Si       5.31929168       7.52261443      14.57244781
Si       5.31929168       6.15486635      16.50673569
Si      -4.35214774      -6.15486635      16.50673569
Si      -4.35214774      -7.52261443      18.44102357
Si      -2.41785985       7.52261443      14.57244781
Si      -2.41785985       6.15486635      16.50673569
Si      -0.48357197      -6.15486635      16.50673569
Si      -0.48357197      -7.52261443      18.44102357
Si       1.45071591       7.52261443      14.57244781
Si       1.45071591       6.15486635      16.50673569
Si       3.38500379      -6.15486635      16.50673569
Si       3.38500379      -7.52261443      18.44102357
Si       5.31929168      -3.41937020      14.57244781
Si       5.31929168      -4.78711827      16.50673569
Si      -4.35214774      -0.68387404      16.50673569
Si      -4.35214774      -2.05162212      18.44102357
Si      -2.41785985      -3.41937020      14.57244781
Si      -2.41785985      -4.78711827      16.50673569
Si      -0.48357197      -0.68387404      16.50673569
Si      -0.48357197      -2.05162212      18.44102357
Si       1.45071591      -3.41937020      14.57244781
Si       1.45071591      -4.78711827      16.50673569
Si       3.38500379      -0.68387404      16.50673569
Si       3.38500379      -2.05162212      18.44102357
Si       5.31929168       2.05162212      14.57244781
Si       5.31929168       0.68387404      16.50673569
Si      -4.35214774       4.78711827      16.50673569
Si      -4.35214774       3.41937020      18.44102357
Si      -2.41785985       2.05162212      14.57244781
Si      -2.41785985       0.68387404      16.50673569
Si      -0.48357197       4.78711827      16.50673569
Si      -0.48357197       3.41937020      18.44102357
Si       1.45071591       2.05162212      14.57244781
Si       1.45071591       0.68387404      16.50673569
Si       3.38500379       4.78711827      16.50673569
Si       3.38500379       3.41937020      18.44102357
