360
Lattice="11.605727294873521 0.0 0.0 0.0 16.412976941613742 0.0 0.0 0.0 38.6857576495784" Properties=species:S:1:pos:R:3 pbc="F F F"
Si       5.31929168       7.52261443      18.44104082
Si       5.31929168       6.15486635     -17.47389688
Si      -4.35214774      -6.15486635     -17.47389688
Si      -4.35214774      -7.52261443     -15.53960900
Si      -2.41785985       7.52261443      18.44104082
Si      -2.41785985       6.15486635     -17.47389688
Si      -0.48357197      -6.15486635     -17.47389688
Si      -0.48357197      -7.52261443     -15.53960900
Si       1.45071591       7.52261443      18.44104082
Si       1.45071591       6.15486635     -17.47389688
Si       3.38500379      -6.15486635     -17.47389688
Si       3.38500379      -7.52261443     -15.53960900
Si       5.31929168      -3.41937020      18.44104082
Si       5.31929168      -4.78711827     -17.47389688
Si      -4.35214774      -0.68387404     -17.47389688
Si      -4.35214774      -2.05162212     -15.53960900
Si      -2.41785985      -3.41937020      18.44104082
Si      -2.41785985      -4.78711827     -17.47389688
Si      -0.48357197      -0.68387404     -17.47389688
Si      -0.48357197      -2.05162212     -15.53960900
Si       1.45071591      -3.41937020      18.44104082
Si       1.45071591      -4.78711827     -17.47389688
Si       3.38500379      -0.68387404     -17.47389688
Si       3.38500379      -2.05162212     -15.53960900
Si       5.31929168       2.05162212      18.44104082
Si       5.31929168       0.68387404     -17.47389688
Si      -4.35214774       4.78711827     -17.47389688
Si      -4.35214774       3.41937020     -15.53960900
Si      -2.41785985       2.05162212      18.44104082
Si      -2.41785985       0.68387404     -17.47389688
Si      -0.48357197       4.78711827     -17.47389688
Si      -0.48357197       3.41937020     -15.53960900
Si       1.45071591       2.05162212      18.44104082
Si       1.45071591       0.68387404     -17.47389688
Si       3.38500379       4.78711827     -17.47389688
Si       3.38500379       3.41937020     -15.53960900
Si       5.31929168       7.52261443     -15.53960900
Si       5.31929168       6.15486635     -13.60532111
Si      -4.35214774      -6.15486635     -13.60532111
Si      -4.35214774      -7.52261443     -11.67103323
Si      -2.41785985       7.52261443     -15.53960900
Si      -2.41785985       6.15486635     -13.60532111
Si      -0.48357197      -6.15486635     -13.60532111
Si      -0.48357197      -7.52261443     -11.67103323
Si       1.45071591       7.52261443     -15.53960900
Si       1.45071591       6.15486635     -13.60532111
Si       3.38500379      -6.15486635     -13.60532111
Si       3.38500379      -7.52261443     -11.67103323
Si       5.31929168      -3.41937020     -15.53960900
Si       5.31929168      -4.78711827     -13.60532111
Si      -4.35214774      -0.68387404     -13.60532111
Si      -4.35214774      -2.05162212     -11.67103323
Si      -2.41785985      -3.41937020     -15.53960900
Si      -2.41785985      -4.78711827     -13.60532111
Si      -0.48357197      -0.68387404     -13.60532111
Si      -0.48357197      -2.05162212     -11.67103323
Si       1.45071591      -3.41937020     -15.53960900
Si       1.45071591      -4.78711827     -13.60532111
Si       3.38500379      -0.68387404     -13.60532111
Si       3.38500379      -2.05162212     -11.67103323
Si       5.31929168       2.05162212     -15.53960900
Si       5.31929168       0.68387404     -13.60532111
Si      -4.35214774       4.78711827     -13.60532111
Si      -4.35214774       3.41937020     -11.67103323
Si      -2.41785985       2.05162212     -15.53960900
Si      -2.41785985       0.68387404     -13.60532111
Si      -0.48357197       4.78711827     -13.60532111
Si      -0.48357197       3.41937020     -11.67103323
Si       1.45071591       2.05162212     -15.53960900
Si       1.45071591       0.68387404     -13.60532111
Si       3.38500379       4.78711827     -13.60532111
Si       3.38500379       3.41937020     -11.67103323
Si       5.31929168       7.52261443     -11.67103323
Si       3.47487851       7.17201264     -10.37530937
Si      -2.50773448      -7.17201266     -10.37530931
Si      -1.92339142      -8.15172036      -8.20729894
Si      -2.41785985       7.52261443     -11.67103323
Si      -2.56166530       6.17139567      -9.79913905
Si      -0.00967298      -5.97881550      -9.97669909
Si       0.25838694      -7.21560760      -8.04029355
Si       1.45071591       7.52261443     -11.67103323
Si       0.97681745       5.97881536      -9.97669902
Si       3.52880993      -6.17139563      -9.79913922
Si       2.69436638      -7.49654981      -7.99254120
Si       5.31929168      -3.41937020     -11.67103323
Si       5.45089314      -4.80640670      -9.78478661
Si      -4.38563273      -0.74448405      -9.77837649
Si      -4.33066901      -2.23186509      -7.99263500
Si      -2.41785985      -3.41937020     -11.67103323
Si      -2.08971098      -4.89014428      -9.88867287
Si      -0.49004142      -0.65853209      -9.80510677
Si      -0.47969130      -2.07283063      -7.95103651
Si       1.45071591      -3.41937020     -11.67103323
Si       1.80590207      -4.62747334      -9.78004154
Si       3.45005863      -0.61523753      -9.82635383
Si       3.55614270      -1.96452061      -7.93147846
Si       5.31929168       2.05162212     -11.67103323
Si       5.35277736       0.74448366      -9.77837686
Si      -4.48374835       4.80640645      -9.78478625
Si      -4.39553553       3.48695235      -7.87234351
Si      -2.41785985       2.05162212     -11.67103323
Si      -2.48291419       0.61523744      -9.82635373
Si      -0.83875758       4.62747320      -9.78004134
Si      -0.61869809       3.21247535      -7.95488768
Si       1.45071591       2.05162212     -11.67103323
Si       1.45718584       0.65853194      -9.80510686
Si       3.05685544       4.89014420      -9.88867284
Si       3.33379253       3.54588833      -7.98604400
Si       2.89053628       8.15172020      -8.20729885
Si       3.96417744       7.22671513      -6.25309779
Si      -2.99703171      -7.22671566      -6.25309721
Si      -1.98885676      -8.21831444      -4.32478248
Si      -1.72722131       7.49654950      -7.99254084
Si      -2.29119077       6.25178335      -6.06966243
Si      -0.14027961      -5.92166111      -6.14701817
Si       0.15261404      -7.21391554      -4.24982217
Si       0.70875805       7.21560725      -8.04029329
Si       1.10742529       5.92166058      -6.14701817
Si       3.25833647      -6.25178378      -6.06966287
Si       2.54278433      -7.57505301      -4.22740244
Si       5.36268071      -3.48695251      -7.87234397
Si       5.25657183      -4.96413474      -6.06359207
Si      -4.38997720      -0.90910534      -6.08844659
Si      -4.35267129      -2.28052771      -4.21875029
Si      -2.36664749      -3.54588873      -7.98604370
Si      -2.26771661      -4.97413614      -6.13333087
Si      -0.50527335      -0.66415798      -6.07940848
Si      -0.50049504      -2.06247505      -4.20719027
Si       1.58584308      -3.21247564      -7.95488777
Si       1.68150075      -4.53556032      -6.06578612
Si       3.51999956      -0.55370189      -6.07158801
Si       3.57666359      -1.95779649      -4.19933354
Si       5.29781413       2.23186477      -7.99263549
Si       5.35712289       0.90910479      -6.08844726
Si      -4.28942613       4.96413431      -6.06359141
Si      -4.31175908       3.61045611      -4.16733051
Si      -2.58899769       1.96452026      -7.93147812
Si      -2.55285394       0.55370144      -6.07158768
Si      -0.71435510       4.53555986      -6.06578589
Si      -0.60873425       3.16971388      -4.19755752
Si       1.44683629       2.07283033      -7.95103653
Si       1.47241895       0.66415749      -6.07940862
Si       3.23486230       4.97413565      -6.13333115
Si       3.35287573       3.57447107      -4.24169030
Si       2.95600317       8.21831380      -4.32478272
Si       4.02480084       7.22252080      -2.42836189
Si      -3.05765386      -7.22252165      -2.42836123
Si      -2.07040710      -8.19923782      -0.48524654
Si      -1.57563796       7.57505251      -4.22740216
Si      -2.19627787       6.30279908      -2.32658991
Si      -0.19997026      -5.91649243      -2.36105347
Si       0.08274825      -7.21513644      -0.46575636
Si       0.81453234       7.21391498      -4.24982207
Si       1.16711714       5.91649172      -2.36105357
Si       3.16342476      -6.30279966      -2.32659023
Si       2.46497030      -7.60183889      -0.46332705
Si       5.27890536      -3.61045663      -4.16733111
Si       5.17172255      -5.03001005      -2.31720916
Si      -4.40238082      -0.90334471      -2.34885058
Si      -4.37853270      -2.25381533      -0.46425795
Si      -2.38572945      -3.57447175      -4.24168989
Si      -2.31777816      -4.96905194      -2.36223094
Si      -0.51857353      -0.65362454      -2.33544944
Si      -0.51855443      -2.05581717      -0.46311479
Si       1.57588049      -3.16971447      -4.19755765
Si       1.63347923      -4.53821010      -2.33013635
Si       3.53437766      -0.56640467      -2.32565860
Si       3.56362107      -1.97934003      -0.45790946
Si       5.31981758       2.28052704      -4.21875089
Si       5.36952757       0.90334400      -2.34885119
Si      -4.20457573       5.03000959      -2.31720864
Si      -4.27347918       3.65852714      -0.43500387
Si      -2.60951737       1.95779592      -4.19933314
Si      -2.56723094       0.56640399      -2.32565827
Si      -0.66633241       4.53820947      -2.33013621
Si      -0.58520704       3.17785670      -0.45598202
Si       1.46764127       2.06247444      -4.20719036
Si       1.48572025       0.65362386      -2.33544958
Si       3.28492501       4.96905115      -2.36223130
Si       3.38556151       3.55591394      -0.48057720
Si       3.03755462       8.19923695      -0.48524695
Si       4.09906105       7.18245958       1.39997169
Si      -3.13191328      -7.18246057       1.39997231
Si      -2.14038470      -8.15765052       3.34037536
Si      -1.49782285       7.60183840      -0.46332700
Si      -2.14351552       6.32400414       1.42522672
Si      -0.24691064      -5.90619005       1.41667982
Si       0.02842095      -7.20490891       3.31315197
Si       0.88439918       7.21513576      -0.46575643
Si       1.21405825       5.90618931       1.41667967
Si       3.11066315      -6.32400463       1.42522667
Si       2.40896533      -7.60999425       3.29679141
Si       5.24062637      -3.65852769      -0.43500429
Si       5.12873709      -5.06677155       1.42233098
Si      -4.40943018      -0.86877490       1.40102619
Si      -4.39649421      -2.21390749       3.29065390
Si      -2.41841429      -3.55591477      -0.48057683
Si      -2.35652958      -4.94188443       1.41009466
Si      -0.52332659      -0.64717726       1.40828757
Si      -0.53192435      -2.04756201       3.28266250
Si       1.55235422      -3.17785739      -0.45598208
Si       1.59874058      -4.54377026       1.41656864
Si       3.53046765      -0.58784580       1.41723989
Si       3.55032973      -1.99925665       3.28580559
Si       5.34567989       2.25381446      -0.46425841
Si       5.37657753       0.86877419       1.40102591
Si      -4.16158958       5.06677126       1.42233113
Si      -4.24983385       3.68812639       3.29847389
Si      -2.59647393       1.97933941      -0.45790920
Si      -2.56332033       0.58784514       1.41724007
Si      -0.63159308       4.54376966       1.41656861
Si      -0.56374191       3.18347462       3.29050744
Si       1.48570158       2.05581644      -0.46311491
Si       1.49047390       0.64717658       1.40828749
Si       3.32367712       4.94188353       1.41009433
Si       3.41193719       3.52737985       3.28612503
Si       3.10753265       8.15764964       3.34037474
Si       4.15774959       7.13298405       5.23383136
Si      -3.19060182      -7.13298495       5.23383195
Si      -2.23191246      -8.05800003       7.21369561
Si      -1.44181745       7.60999393       3.29679121
Si      -2.11115197       6.33237929       5.17727531
Si      -0.28734902      -5.89154168       5.19553996
Si      -0.01130685      -7.19799554       7.08881203
Si       0.93872689       7.20490828       3.31315177
Si       1.25449653       5.89154108       5.19553982
Si       3.07829957      -6.33237944       5.17727550
Si       2.39108202      -7.59302361       7.06829190
Si       5.21698134      -3.68812670       3.29847382
Si       5.10109746      -5.08131256       5.16514697
Si      -4.41268115      -0.83107386       5.15733522
Si      -4.39023113      -2.16615196       7.05500412
Si      -2.44478970      -3.52738065       3.28612525
Si      -2.38856299      -4.90527133       5.18617790
Si      -0.52454793      -0.63697391       5.14865124
Si      -0.52624276      -2.02750358       7.02691493
Si       1.53088933      -3.18347517       3.29050747
Si       1.57314863      -4.54801401       5.16600377
Si       3.52245022      -0.60890870       5.16294236
Si       3.53145630      -2.01259233       7.03597688
Si       5.36364167       2.21390667       3.29065376
Si       5.37982833       0.83107333       5.15733535
Si      -4.13394996       5.08131258       5.16514674
Si      -4.26101224       3.66824864       7.01517917
Si      -2.58318237       1.99925619       3.28580559
Si      -2.55530312       0.60890828       5.16294234
Si      -0.60600129       4.54801365       5.16600361
Si      -0.54431558       3.19593385       7.04546937
Si       1.49907172       2.04756138       3.28266239
Si       1.49169502       0.63697346       5.14865124
Si       3.35571041       4.90527055       5.18617766
Si       3.40328747       3.47726370       7.04925877
Si       3.19906001       8.05799931       7.21369476
Si       4.41228762       6.89763143       8.93796608
Si      -3.44514020      -6.89763210       8.93796704
Si      -2.76892399      -7.33092573      11.18285883
Si      -1.42393454       7.59302353       7.06829169
Si      -2.17884591       6.26933669       8.88787534
Si      -0.28617279      -5.94465989       9.01218580
Si       0.03987970      -7.44597547      10.77618386
Si       0.97845427       7.19799511       7.08881176
Si       1.25331938       5.94465963       9.01218573
Si       3.14599251      -6.26933648       8.88787558
Si       2.48345032      -7.39625730      10.83106302
Si       5.22815917      -3.66824855       7.01517943
Si       5.16817017      -5.02426802       8.90784687
Si      -4.40180616      -0.76764785       8.91169067
Si      -4.41190690      -2.10923811      10.80597887
Si      -2.43614060      -3.47726424       7.04925880
Si      -2.35163948      -4.84760282       8.95333217
Si      -0.50984920      -0.64085234       8.90246196
Si      -0.49940125      -2.04610398      10.76569452
Si       1.51146235      -3.19593404       7.04546942
Si       1.55686014      -4.57961407       8.91019826
Si       3.48190786      -0.63173569       8.92133050
Si       3.46161807      -2.06081941      10.77190057
Si       5.35737793       2.16615138       7.05500433
Si       5.36895212       0.76764763       8.91169117
Si      -4.20102364       5.02426828       8.90784650
Si      -4.33796452       3.51943298      10.69703132
Si      -2.56430959       2.01259219       7.03597668
Si      -2.51476198       0.63173559       8.92133032
Si      -0.58971382       4.57961407       8.91019814
Si      -0.50693184       3.30175148      10.83084817
Si       1.49338944       2.02750326       7.02691487
Si       1.47699507       0.64085220       8.90246202
Si       3.31878598       4.84760258       8.95333191
Si       3.41472522       3.38806987      10.78456753
Si       3.73606954       7.33092596      11.18285692
Si       5.31929168       6.15486635      12.63817717
Si      -4.35214774      -6.15486635      12.63817717
Si      -4.35214774      -7.52261443      14.57246505
Si      -1.51630379       7.39625652      10.83106332
Si      -2.41785985       6.15486635      12.63817717
Si      -0.48357197      -6.15486635      12.63817717
Si      -0.48357197      -7.52261443      14.57246505
Si       0.92726756       7.44597571      10.77618352
Si       1.45071591       6.15486635      12.63817717
Si       3.38500379      -6.15486635      12.63817717
Si       3.38500379      -7.52261443      14.57246505
Si       5.30510989      -3.51943262      10.69703168
Si       5.31929168      -4.78711827      12.63817717
Si      -4.35214774      -0.68387404      12.63817717
Si      -4.35214774      -2.05162212      14.57246505
Si      -2.44758013      -3.38806988      10.78456750
Si      -2.41785985      -4.78711827      12.63817717
Si      -0.48357197      -0.68387404      12.63817717
Si      -0.48357197      -2.05162212      14.57246505
Si       1.47407691      -3.30175150      10.83084824
Si       1.45071591      -4.78711827      12.63817717
Si       3.38500379      -0.68387404      12.63817717
Si       3.38500379      -2.05162212      14.57246505
Si       5.37905202       2.10923820      10.80597915
Si       5.31929168       0.68387404      12.63817717
Si      -4.35214774       4.78711827      12.63817717
Si      -4.35214774       3.41937020      14.57246505
Si      -2.49447301       2.06081935      10.77190042
Si      -2.41785985       0.68387404      12.63817717
Si      -0.48357197       4.78711827      12.63817717
Si      -0.48357197       3.41937020      14.57246505
Si       1.46654631       2.04610396      10.76569451
Si       1.45071591       0.68387404      12.63817717
Si       3.38500379       4.78711827      12.63817717
Si       3.38500379       3.41937020      14.57246505
Si       5.31929168       7.52261443      14.57246505
Si       5.31929168       6.15486635      16.50675294
Si      -4.35214774      -6.15486635      16.50675294
Si      -4.35214774      -7.52261443      18.44104082
Si      -2.41785985       7.52261443      14.57246505
Si      -2.41785985       6.15486635      16.50675294
Si      -0.48357197      -6.15486635      16.50675294
Si      -0.48357197      -7.52261443      18.44104082
Si       1.45071591       7.52261443      14.57246505
Si       1.45071591       6.15486635      16.50675294
Si       3.38500379      -6.15486635      16.50675294
Si       3.38500379      -7.52261443      18.44104082
Si       5.31929168      -3.41937020      14.57246505
Si       5.31929168      -4.78711827      16.50675294
Si      -4.35214774      -0.68387404      16.50675294
Si      -4.35214774      -2.05162212      18.44104082
Si      -2.41785985      -3.41937020      14.57246505
Si      -2.41785985      -4.78711827      16.50675294
Si      -0.48357197      -0.68387404      16.50675294
Si      -0.48357197      -2.05162212      18.44104082
Si       1.45071591      -3.41937020      14.57246505
Si       1.45071591      -4.78711827      16.50675294
Si       3.38500379      -0.68387404      16.50675294
Si       3.38500379      -2.05162212      18.44104082
Si       5.31929168       2.05162212      14.57246505
Si       5.31929168       0.68387404      16.50675294
Si      -4.35214774       4.78711827      16.50675294
Si      -4.35214774       3.41937020      18.44104082
Si      -2.41785985       2.05162212      14.57246505
Si      -2.41785985       0.68387404      16.50675294
Si      -0.48357197       4.78711827      16.50675294
Si      -0.48357197       3.41937020      18.44104082
Si       1.45071591       2.05162212      14.57246505
Si       1.45071591       0.68387404      16.50675294
Si       3.38500379       4.78711827      16.50675294
Si       3.38500379       3.41937020      18.44104082
