216
Lattice="11.605727294873521 0.0 0.0 0.0 13.401139555673227 0.0 0.0 0.0 28.428109966331448" Properties=species:S:1:pos:R:3:forces:R:3:energies:R:1 energy=-1167.9731512467563 stress="0.015103416418505742 -1.8230808430512004e-17 1.390175679773101e-17 -1.8230808430512004e-17 0.015153000814970369 -3.18480200246757e-07 1.390175679773101e-17 -3.18480200246757e-07 0.015161657875342353" free_energy=-1167.9731512467563 pbc="T T T"
Si      11.60572729      13.18814980      20.87725486       0.00000000      -0.00004908       0.00005039      -5.39168739
Si       0.00000000      13.37693295      23.28907478       0.00000000      -0.00003798      -0.00003810      -5.34211090
Si       0.00000000       2.24464961      24.12203617       0.00000000      -0.00006622       0.00000333      -5.33797650
Si       0.00000000       2.43810449      26.52703128       0.00000000      -0.00012134       0.00002262      -5.40501730
B        0.00000000       4.46273525      27.23817270       0.00000000       0.00004280      -0.00002903      -6.50325936
Si       0.00000000       4.46332922       0.95105643      -0.00000000      -0.00000241       0.00006260      -5.40820109
Si       1.90242244       1.16525855      27.25513624      -0.00000148      -0.00009395      -0.00004849      -5.35387367
Si       1.90111564       1.07434876       1.18461049       0.00000497       0.00004175       0.00000108      -5.35487365
Si       1.93416137       3.33068266      20.91959324      -0.00002748      -0.00003440       0.00000862      -5.36368352
Si       1.93101024       3.35333696      23.30329103       0.00002101       0.00000720      -0.00003489      -5.39106569
Si       1.95304228       5.56407376      24.14128221       0.00003673      -0.00005683      -0.00002847      -5.32076350
Si       1.75749281       5.47311166      26.52810603       0.00013245      -0.00002227       0.00000629      -5.39796509
Si       3.86267913       0.00420294      20.93846568      -0.00004388      -0.00006402       0.00005982      -5.38709205
Si       3.86529913       0.02321844      23.31900757      -0.00000398      -0.00004220      -0.00004845      -5.36130575
Si       3.89285271       2.29220052      24.09429718      -0.00001069      -0.00007190      -0.00003324      -5.34696241
Si       3.86155235       2.24946390      26.46195580       0.00004191      -0.00004515      -0.00001432      -5.39114615
Si       3.84491655       4.49297383      27.19279349      -0.00000122      -0.00002045      -0.00004087      -5.32080539
Si       3.86529055       4.47813000       1.15261556       0.00006288      -0.00002550      -0.00004055      -5.37547039
Si       5.80286365       1.13070979      27.25814794       0.00000000      -0.00016247      -0.00008971      -5.38898457
Si       5.80286365       1.14597411       1.20975531       0.00000000       0.00001229      -0.00009145      -5.38157592
Si       5.80286365       3.40172828      20.96538992       0.00000000      -0.00004617      -0.00003091      -5.35644694
Si       5.80286365       3.57013501      23.37083357      -0.00000000      -0.00001932      -0.00010130      -5.39251896
B        5.80286365       5.58570139      24.09308823       0.00000000      -0.00013152       0.00004455      -6.50001488
Si       5.80286365       5.57807873      26.23509161      -0.00000000      -0.00013343       0.00000397      -5.37984488
Si       7.74304817       0.00420294      20.93846568       0.00004388      -0.00006402       0.00005982      -5.38709205
Si       7.74042816       0.02321844      23.31900757       0.00000398      -0.00004220      -0.00004845      -5.36130575
Si       7.71287459       2.29220052      24.09429718       0.00001069      -0.00007190      -0.00003324      -5.34696241
Si       7.74417495       2.24946390      26.46195580      -0.00004191      -0.00004515      -0.00001432      -5.39114615
Si       7.76081074       4.49297383      27.19279349       0.00000122      -0.00002045      -0.00004087      -5.32080539
Si       7.74043675       4.47813000       1.15261556      -0.00006288      -0.00002550      -0.00004055      -5.37547039
Si       9.70330486       1.16525855      27.25513624       0.00000148      -0.00009395      -0.00004849      -5.35387367
Si       9.70461165       1.07434876       1.18461049      -0.00000497       0.00004175       0.00000108      -5.35487365
Si       9.67156592       3.33068266      20.91959324       0.00002748      -0.00003440       0.00000862      -5.36368352
Si       9.67471706       3.35333696      23.30329103      -0.00002101       0.00000720      -0.00003489      -5.39106569
Si       9.65268502       5.56407376      24.14128221      -0.00003673      -0.00005683      -0.00002847      -5.32076350
Si       9.84823449       5.47311166      26.52810603      -0.00013245      -0.00002227       0.00000629      -5.39796509
Si       0.00000000       6.70037381      20.94321448       0.00000000      -0.00012406       0.00003904      -5.38653795
Si       0.00000000       6.69011460      23.32780529       0.00000000      -0.00008006       0.00006715      -5.35816927
Si       0.00000000       8.93657543      24.13897069      -0.00000000      -0.00011511      -0.00004291      -5.37013892
Si       0.00000000       8.95875392      26.53805592       0.00000000       0.00001481      -0.00009977      -5.35294450
Si       0.00000000      11.17101938      27.49674607       0.00000000      -0.00001069      -0.00010881      -5.40456435
B       11.60572729      11.16348575       1.21114519       0.00000000       0.00002511      -0.00010701      -6.50024180
Si       1.90330434       7.76142221      27.27058447       0.00003125      -0.00014191      -0.00000500      -5.35098177
Si       1.91167615       7.85160769       1.21043330       0.00004717      -0.00001908      -0.00003326      -5.34172680
Si       1.75923767      10.14797790      20.88154786       0.00001250      -0.00010991       0.00004345      -5.39536884
Si       1.91627803      10.04686745      23.28417585      -0.00005679      -0.00001191      -0.00005438      -5.33860973
Si       1.92358951      12.27722405      24.12880596      -0.00006916      -0.00010051       0.00006309      -5.36903031
Si       1.89116053      12.29353883      26.52637084      -0.00004469      -0.00002002       0.00003126      -5.34226495
Si       3.87993716       6.70014567      20.97746861      -0.00005621      -0.00009934       0.00004659      -5.33816177
Si       4.02796371       6.58479323      23.39064624      -0.00005033      -0.00007410      -0.00004316      -5.37953370
Si       3.87505529       8.88320138      24.08417167      -0.00003046      -0.00010110      -0.00003522      -5.34230513
Si       3.84769804       8.90972276      26.46236536       0.00001636      -0.00001524       0.00002422      -5.36470771
Si       3.85067138      11.16645591      27.26399715       0.00000782      -0.00004818      -0.00006583      -5.38315139
Si       3.81590726      11.16598030       1.20366200      -0.00000912       0.00001148       0.00000907      -5.34985569
Si       5.80286365       7.77641964      27.20014125      -0.00000000      -0.00008013       0.00006567      -5.35280712
Si       5.80286365       7.79605311       1.16810963      -0.00000000       0.00000838       0.00005352      -5.36990646
Si       5.80286365      10.04620470      20.92955346      -0.00000000      -0.00003985       0.00001720      -5.35263155
Si       5.80286365      10.03747416      23.31034365      -0.00000000       0.00002502      -0.00006206      -5.38291469
Si       5.80286365      12.28720568      24.10037239       0.00000000      -0.00007731       0.00007099      -5.38493602
Si       5.80286365      12.28272810      26.47557556      -0.00000000       0.00002247       0.00000704      -5.38650728
Si       7.72579013       6.70014567      20.97746861       0.00005621      -0.00009934       0.00004659      -5.33816177
Si       7.57776358       6.58479323      23.39064624       0.00005033      -0.00007410      -0.00004316      -5.37953370
Si       7.73067201       8.88320138      24.08417167       0.00003046      -0.00010110      -0.00003522      -5.34230513
Si       7.75802925       8.90972276      26.46236536      -0.00001636      -0.00001524       0.00002422      -5.36470771
Si       7.75505591      11.16645591      27.26399715      -0.00000782      -0.00004818      -0.00006583      -5.38315139
Si       7.78982003      11.16598030       1.20366200       0.00000912       0.00001148       0.00000907      -5.34985569
Si       9.70242296       7.76142221      27.27058447      -0.00003125      -0.00014191      -0.00000500      -5.35098177
Si       9.69405114       7.85160769       1.21043330      -0.00004717      -0.00001908      -0.00003326      -5.34172680
Si       9.84648962      10.14797790      20.88154786      -0.00001250      -0.00010991       0.00004345      -5.39536884
Si       9.68944927      10.04686745      23.28417585       0.00005679      -0.00001191      -0.00005438      -5.33860973
Si       9.68213779      12.27722405      24.12880596       0.00006916      -0.00010051       0.00006309      -5.36903031
Si       9.71456677      12.29353883      26.52637084       0.00004469      -0.00002002       0.00003126      -5.34226495
Si       0.00000000      13.19503958       1.91745582      -0.00000000       0.00004718       0.00000127      -5.38812572
Si       0.00000000      13.37891208       4.32517767      -0.00000000       0.00005745      -0.00002650      -5.34414829
Si       0.00000000       2.24843879       5.14355447      -0.00000000       0.00006118       0.00001612      -5.34102423
Si       0.00000000       2.43966199       7.55148170       0.00000000      -0.00000065       0.00001288      -5.40493350
B        0.00000000       4.46264627       8.26393462       0.00000000       0.00007931      -0.00005851      -6.50489555
Si       0.00000000       4.46265802      10.40727236      -0.00000000       0.00007284       0.00003339      -5.39993824
Si       1.90174851       1.16661965       8.28470832       0.00000185       0.00001769       0.00004249      -5.35350629
Si       1.90109544       1.07343799      10.64366627      -0.00003647       0.00010207       0.00002102      -5.35336307
Si       1.90115596       3.34937963       1.90774131      -0.00002869      -0.00002312       0.00000499      -5.33416672
Si       1.92052816       3.35968241       4.30728108       0.00005264       0.00005002       0.00000510      -5.37673157
Si       1.95021812       5.56236379       5.16227791       0.00003491       0.00000474      -0.00002731      -5.32362185
Si       1.75594154       5.47218111       7.55135029       0.00013977       0.00008634      -0.00000571      -5.39724283
Si       3.86109859       0.00682365       1.98035579      -0.00000887      -0.00004540      -0.00002165      -5.38678357
Si       3.86425630       0.02475065       4.35734563       0.00001355       0.00006403      -0.00003318      -5.36367350
Si       3.88552343       2.29786955       5.11873887       0.00000999       0.00002080       0.00000272      -5.34340995
Si       3.85945390       2.25162868       7.48847290       0.00002319       0.00007732      -0.00000325      -5.39111731
Si       3.84371807       4.49400755       8.22052954       0.00001080       0.00015175      -0.00003440      -5.32129708
Si       3.86589039       4.47970253      10.60952529       0.00003152       0.00010261      -0.00005383      -5.37388320
Si       5.80286365       1.13424539       8.28745905      -0.00000000       0.00001042      -0.00001317      -5.38728273
Si       5.80286365       1.14784982      10.66939984       0.00000000       0.00012037      -0.00005371      -5.38163327
Si       5.80286365       3.40268553       2.00520752       0.00000000      -0.00001890      -0.00006393      -5.35632133
Si       5.80286365       3.57181247       4.40656321      -0.00000000       0.00003239      -0.00010521      -5.39545636
B        5.80286365       5.58698560       5.12632643      -0.00000000      -0.00004385       0.00011491      -6.50088846
Si       5.80286365       5.57942433       7.26559712       0.00000000       0.00000992       0.00002452      -5.38144061
Si       7.74462871       0.00682365       1.98035579       0.00000887      -0.00004540      -0.00002165      -5.38678357
Si       7.74147100       0.02475065       4.35734563      -0.00001355       0.00006403      -0.00003318      -5.36367350
Si       7.72020386       2.29786955       5.11873887      -0.00000999       0.00002080       0.00000272      -5.34340995
Si       7.74627340       2.25162868       7.48847290      -0.00002319       0.00007732      -0.00000325      -5.39111731
Si       7.76200923       4.49400755       8.22052954      -0.00001080       0.00015175      -0.00003440      -5.32129708
Si       7.73983690       4.47970253      10.60952529      -0.00003152       0.00010261      -0.00005383      -5.37388320
Si       9.70397878       1.16661965       8.28470832      -0.00000185       0.00001769       0.00004249      -5.35350629
Si       9.70463185       1.07343799      10.64366627       0.00003647       0.00010207       0.00002102      -5.35336307
Si       9.70457133       3.34937963       1.90774131       0.00002869      -0.00002312       0.00000499      -5.33416672
Si       9.68519913       3.35968241       4.30728108      -0.00005264       0.00005002       0.00000510      -5.37673157
Si       9.65550917       5.56236379       5.16227791      -0.00003491       0.00000474      -0.00002731      -5.32362185
Si       9.84978576       5.47218111       7.55135029      -0.00013977       0.00008634      -0.00000571      -5.39724283
Si       0.00000000       6.66344094       1.93194095      -0.00000000      -0.00010925       0.00007953      -5.35627872
Si       0.00000000       6.67826755       4.33223498       0.00000000      -0.00001551       0.00006472      -5.34431731
Si       0.00000000       8.92765125       5.16347989      -0.00000000      -0.00008061       0.00000622      -5.36792897
Si       0.00000000       8.95568996       7.56329325       0.00000000       0.00005500      -0.00007408      -5.35253793
Si       0.00000000      11.16777735       8.52585084      -0.00000000       0.00002317       0.00006116      -5.40443470
B        0.00000000      11.15877353      10.66753932      -0.00000000       0.00010030      -0.00000317      -6.50306668
Si       1.90257264       7.76019640       8.29700373       0.00005616      -0.00004623       0.00002943      -5.35110932
Si       1.91172693       7.85183749      10.66493203       0.00003086       0.00009625       0.00000260      -5.34195046
Si       1.75451202      10.14806848       1.92353669       0.00011808      -0.00008488       0.00003132      -5.39584200
Si       1.91539073      10.04696322       4.32155018      -0.00000352       0.00003188      -0.00001503      -5.34084031
Si       1.92242427      12.27758281       5.16471741      -0.00001169      -0.00001472       0.00006573      -5.36885441
Si       1.89054148      12.29385625       7.55969111      -0.00003106       0.00005870       0.00006187      -5.34354583
Si       3.87353715       6.69568420       2.01574153       0.00001189      -0.00009827       0.00001723      -5.33480773
Si       4.02684182       6.58421663       4.42542095      -0.00004227       0.00002387      -0.00007544      -5.37945999
Si       3.87447771       8.88310680       5.11804356       0.00001507      -0.00001199       0.00003724      -5.34161266
Si       3.84675611       8.91120413       7.49361949       0.00002582       0.00007903       0.00001550      -5.36512712
Si       3.85026914      11.16780654       8.29687539       0.00002138       0.00000107       0.00009315      -5.38237408
Si       3.81525845      11.16766113      10.66436981      -0.00003963       0.00005854       0.00003112      -5.35091297
Si       5.80286365       7.77926312       8.22711874       0.00000000       0.00008426       0.00007946      -5.35316032
Si       5.80286365       7.80369370      10.61915571       0.00000000       0.00010481       0.00002657      -5.37253946
Si       5.80286365      10.04426012       1.97147914      -0.00000000      -0.00002753      -0.00004598      -5.35063673
Si       5.80286365      10.03813991       4.34906804       0.00000000       0.00006445      -0.00005338      -5.38312573
Si       5.80286365      12.28931284       5.13700404       0.00000000      -0.00003089       0.00012711      -5.38344313
Si       5.80286365      12.28478519       7.51025830       0.00000000       0.00010865       0.00001542      -5.38742972
Si       7.73219014       6.69568420       2.01574153      -0.00001189      -0.00009827       0.00001723      -5.33480773
Si       7.57888547       6.58421663       4.42542095       0.00004227       0.00002387      -0.00007544      -5.37945999
Si       7.73124959       8.88310680       5.11804356      -0.00001507      -0.00001199       0.00003724      -5.34161266
Si       7.75897118       8.91120413       7.49361949      -0.00002582       0.00007903       0.00001550      -5.36512712
Si       7.75545816      11.16780654       8.29687539      -0.00002138       0.00000107       0.00009315      -5.38237408
Si       7.79046884      11.16766113      10.66436981       0.00003963       0.00005854       0.00003112      -5.35091297
Si       9.70315465       7.76019640       8.29700373      -0.00005616      -0.00004623       0.00002943      -5.35110932
Si       9.69400036       7.85183749      10.66493203      -0.00003086       0.00009625       0.00000260      -5.34195046
Si       9.85121527      10.14806848       1.92353669      -0.00011808      -0.00008488       0.00003132      -5.39584200
Si       9.69033657      10.04696322       4.32155018       0.00000352       0.00003188      -0.00001503      -5.34084031
Si       9.68330303      12.27758281       5.16471741       0.00001169      -0.00001472       0.00006573      -5.36885441
Si       9.71518581      12.29385625       7.55969111       0.00003106       0.00005870       0.00006187      -5.34354583
Si       0.00000000      13.18781304      11.37041591      -0.00000000      -0.00000605       0.00006388      -5.39013320
Si       0.00000000      13.35084823      13.77238967      -0.00000000       0.00002689      -0.00000477      -5.35823265
Si       0.00000000       2.20927044      14.56253213       0.00000000       0.00005051       0.00007560      -5.36825901
Si       0.00000000       2.22190349      16.95417453       0.00000000       0.00011079       0.00001592      -5.38927678
Si       0.00000000       4.46147257      17.75166523       0.00000000      -0.00003339       0.00001842      -5.38837990
Si       0.00000000       4.46124821      20.13192169       0.00000000       0.00003342      -0.00012718      -5.39118897
Si       1.93269037       1.10889798      17.76901841      -0.00008192       0.00004291       0.00003035      -5.38494792
Si       1.90252170       1.06439676      20.14114618       0.00000615       0.00000833      -0.00000322      -5.35212840
Si       1.90285191       3.34887307      11.36647725      -0.00003650       0.00006328       0.00004042      -5.33399488
Si       1.92900288       3.35434135      13.76557396       0.00002879       0.00010317      -0.00003289      -5.37252651
Si       1.98230488       5.58255601      14.57662147       0.00002627      -0.00001190       0.00000276      -5.34950586
Si       1.93929542       5.58110395      16.95235440      -0.00000080       0.00004360      -0.00001031      -5.38651488
Si       3.86128179       0.00782907      11.44286274      -0.00003622       0.00001695       0.00008308      -5.38613983
Si       3.86523275       0.02312787      13.82219072      -0.00000963       0.00005284      -0.00002793      -5.36474419
Si       3.89180708       2.29482270      14.58469931      -0.00002985       0.00005174       0.00002221      -5.34800249
Si       3.86641984       2.24617193      16.95920970      -0.00000407       0.00005261       0.00001292      -5.38434100
Si       3.89976688       4.49150667      17.70675094      -0.00003485       0.00003568       0.00000085      -5.35533881
Si       3.87429122       4.48371851      20.11090354       0.00004544      -0.00003100      -0.00009224      -5.36649203
Si       5.80286365       1.13425777      17.77057078      -0.00000000      -0.00002739      -0.00002850      -5.38880076
Si       5.80286365       1.14587215      20.15952538       0.00000000      -0.00001200      -0.00005226      -5.36546834
Si       5.80286365       3.40497845      11.46553801       0.00000000       0.00012963      -0.00000550      -5.35676056
Si       5.80286365       3.57266432      13.86805079       0.00000000       0.00009918      -0.00008344      -5.39737021
B        5.80286365       5.59646484      14.58412241      -0.00000000       0.00000542       0.00004815      -6.48828159
Si       5.80286365       5.59223141      16.73637403      -0.00000000      -0.00004154       0.00006128      -5.39903226
Si       7.74444551       0.00782907      11.44286274       0.00003622       0.00001695       0.00008308      -5.38613983
Si       7.74049454       0.02312787      13.82219072       0.00000963       0.00005284      -0.00002793      -5.36474419
Si       7.71392022       2.29482270      14.58469931       0.00002985       0.00005174       0.00002221      -5.34800249
Si       7.73930746       2.24617193      16.95920970       0.00000407       0.00005261       0.00001292      -5.38434100
Si       7.70596041       4.49150667      17.70675094       0.00003485       0.00003568       0.00000085      -5.35533881
Si       7.73143608       4.48371851      20.11090354      -0.00004544      -0.00003100      -0.00009224      -5.36649203
Si       9.67303693       1.10889798      17.76901841       0.00008192       0.00004291       0.00003035      -5.38494792
Si       9.70320559       1.06439676      20.14114618      -0.00000615       0.00000833      -0.00000322      -5.35212840
Si       9.70287539       3.34887307      11.36647725       0.00003650       0.00006328       0.00004042      -5.33399488
Si       9.67672441       3.35434135      13.76557396      -0.00002879       0.00010317      -0.00003289      -5.37252651
Si       9.62342241       5.58255601      14.57662147      -0.00002627      -0.00001190       0.00000276      -5.34950586
Si       9.66643187       5.58110395      16.95235440       0.00000080       0.00004360      -0.00001031      -5.38651488
Si       0.00000000       6.66488062      11.38734723       0.00000000      -0.00002986       0.00008302      -5.35589446
Si       0.00000000       6.68855534      13.78619491      -0.00000000       0.00004182       0.00005033      -5.33777860
Si       0.00000000       8.93242611      14.62727285      -0.00000000      -0.00003349      -0.00003684      -5.36835156
Si       0.00000000       8.95960858      17.03357472       0.00000000       0.00002175      -0.00007775      -5.34879755
Si       0.00000000      11.15877653      18.00787416      -0.00000000      -0.00003667       0.00000996      -5.39618423
B       11.60572729      11.15870429      20.16214396       0.00000000      -0.00001835      -0.00007867      -6.48541525
Si       1.93577826       7.81329833      17.78231007      -0.00002806      -0.00016877      -0.00000073      -5.37911348
Si       1.92082884       7.85568089      20.16641987       0.00001069       0.00002736      -0.00002815      -5.33790505
Si       1.75492860      10.14590469      11.38304111       0.00005645       0.00000453       0.00003469      -5.39516968
Si       1.91759785      10.04391058      13.78289967      -0.00000810       0.00006937      -0.00005715      -5.34313315
Si       1.92581041      12.26728260      14.63116790      -0.00009232      -0.00000078       0.00004847      -5.36522762
Si       1.90098258      12.26098213      17.03281793      -0.00006398       0.00004509      -0.00000502      -5.35545762
Si       3.87766113       6.70124094      11.46299885      -0.00001009       0.00002084       0.00006256      -5.33714606
Si       4.04207543       6.60296401      13.86392432      -0.00008802       0.00005714      -0.00005130      -5.39494650
Si       3.88148225       8.89233744      14.58376125      -0.00001899      -0.00002375      -0.00000084      -5.33721704
Si       3.86727283       8.93384882      16.96571098      -0.00000698       0.00006190      -0.00001394      -5.37982533
Si       3.86237815      11.16968587      17.78326551      -0.00000715      -0.00005289      -0.00000477      -5.38724620
Si       3.81839234      11.16597619      20.15516485      -0.00002448      -0.00001436       0.00004304      -5.34720713
Si       5.80286365       7.78634797      17.71465643       0.00000000      -0.00009936       0.00003936      -5.34941600
Si       5.80286365       7.80127807      20.12064141      -0.00000000       0.00009985       0.00004510      -5.36887795
Si       5.80286365      10.04893364      11.43146783      -0.00000000       0.00003870       0.00002063      -5.34885222
Si       5.80286365      10.04812556      13.81004661      -0.00000000       0.00010622      -0.00004625      -5.38642343
Si       5.80286365      12.29353408      14.60818179       0.00000000      -0.00005882       0.00012223      -5.38323168
Si       5.80286365      12.29134742      16.98603483       0.00000000       0.00007761      -0.00000919      -5.38739674
Si       7.72806617       6.70124094      11.46299885       0.00001009       0.00002084       0.00006256      -5.33714606
Si       7.56365186       6.60296401      13.86392432       0.00008802       0.00005714      -0.00005130      -5.39494650
Si       7.72424505       8.89233744      14.58376125       0.00001899      -0.00002375      -0.00000084      -5.33721704
Si       7.73845446       8.93384882      16.96571098       0.00000698       0.00006190      -0.00001394      -5.37982533
Si       7.74334915      11.16968587      17.78326551       0.00000715      -0.00005289      -0.00000477      -5.38724620
Si       7.78733495      11.16597619      20.15516485       0.00002448      -0.00001436       0.00004304      -5.34720713
Si       9.66994903       7.81329833      17.78231007       0.00002806      -0.00016877      -0.00000073      -5.37911348
Si       9.68489845       7.85568089      20.16641987      -0.00001069       0.00002736      -0.00002815      -5.33790505
Si       9.85079869      10.14590469      11.38304111      -0.00005645       0.00000453       0.00003469      -5.39516968
Si       9.68812945      10.04391058      13.78289967       0.00000810       0.00006937      -0.00005715      -5.34313315
Si       9.67991688      12.26728260      14.63116790       0.00009232      -0.00000078       0.00004847      -5.36522762
Si       9.70474471      12.26098213      17.03281793       0.00006398       0.00004509      -0.00000502      -5.35545762
