216
Lattice="11.605727294873521 0.0 0.0 0.0 13.401139555673227 0.0 0.0 0.0 28.428109966331448" Properties=species:S:1:pos:R:3:forces:R:3 energy=-1165.478060583136 free_energy=-1165.478060583136 pbc="T T T"
Si       0.00000000       0.00000000      20.92624761      -0.00000000       0.00003675       0.00010854
Si      11.60572729      13.40113956      23.29525678       0.00000000       0.00004161       0.00000354
Si      11.60572729       2.23352326      24.08492650      -0.00000000       0.00000565       0.00003921
Si      11.60572729       2.23352326      26.45393566      -0.00000000       0.00007811       0.00002204
B       11.60572729       4.46704652      27.24360538      -0.00000000       0.00002651      -0.00001757
Si       0.00000000       4.46704652       1.18450458      -0.00000000       0.00001454      -0.00004342
Si       1.93428788       1.11676163      27.24360538      -0.00002882       0.00005265       0.00000050
Si       1.93428788       1.11676163       1.18450458       0.00002930       0.00005473       0.00003031
Si       1.93428788       3.35028489      20.92624761       0.00001636       0.00006585       0.00001954
Si       1.93428788       3.35028489      23.29525678       0.00006526       0.00007893      -0.00002286
Si       1.93428788       5.58380815      24.08492650       0.00006154       0.00008212      -0.00002062
Si       1.93428788       5.58380815      26.45393566       0.00007477       0.00001034       0.00001344
Si       3.86857576      13.40113956      20.92624761      -0.00004809       0.00000938       0.00000670
Si       3.86857576      13.40113956      23.29525678      -0.00000761       0.00006184      -0.00003752
Si       3.86857576       2.23352326      24.08492650       0.00002702       0.00007336      -0.00002717
Si       3.86857576       2.23352326      26.45393566       0.00003677       0.00007335      -0.00000689
Si       3.86857576       4.46704652      27.24360538       0.00002868       0.00005426       0.00002021
Si       3.86857576       4.46704652       1.18450458       0.00005112       0.00004488      -0.00008100
Si       5.80286365       1.11676163      27.24360538       0.00000000      -0.00000507      -0.00000994
Si       5.80286365       1.11676163       1.18450458      -0.00000000       0.00007128      -0.00005128
Si       5.80286365       3.35028489      20.92624761       0.00000000       0.00010159      -0.00002839
Si       5.80286365       3.35028489      23.29525678      -0.00000000       0.00000030      -0.00004817
B        5.80286365       5.58380815      24.08492650      -0.00000000       0.00004119       0.00000267
Si       5.80286365       5.58380815      26.45393566      -0.00000000       0.00005450       0.00005881
Si       7.73715153      13.40113956      20.92624761       0.00004809       0.00000938       0.00000670
Si       7.73715153      13.40113956      23.29525678       0.00000761       0.00006184      -0.00003752
Si       7.73715153       2.23352326      24.08492650      -0.00002702       0.00007336      -0.00002717
Si       7.73715153       2.23352326      26.45393566      -0.00003677       0.00007335      -0.00000689
Si       7.73715153       4.46704652      27.24360538      -0.00002868       0.00005426       0.00002021
Si       7.73715153       4.46704652       1.18450458      -0.00005112       0.00004488      -0.00008100
Si       9.67143941       1.11676163      27.24360538       0.00002882       0.00005265       0.00000050
Si       9.67143941       1.11676163       1.18450458      -0.00002930       0.00005473       0.00003031
Si       9.67143941       3.35028489      20.92624761      -0.00001636       0.00006585       0.00001954
Si       9.67143941       3.35028489      23.29525678      -0.00006526       0.00007893      -0.00002286
Si       9.67143941       5.58380815      24.08492650      -0.00006154       0.00008212      -0.00002062
Si       9.67143941       5.58380815      26.45393566      -0.00007477       0.00001034       0.00001344
Si      11.60572729       6.70056978      20.92624761      -0.00000000       0.00003346       0.00004945
Si      11.60572729       6.70056978      23.29525678       0.00000000       0.00007329      -0.00005430
Si      11.60572729       8.93409304      24.08492650       0.00000000       0.00002457      -0.00001064
Si      11.60572729       8.93409304      26.45393566       0.00000000       0.00004270      -0.00004227
Si      11.60572729      11.16761630      27.24360538      -0.00000000       0.00005215      -0.00012297
B        0.00000000      11.16761630       1.18450458      -0.00000000       0.00004908      -0.00000334
Si       1.93428788       7.81733141      27.24360538       0.00001839      -0.00001351      -0.00002858
Si       1.93428788       7.81733141       1.18450458       0.00002250      -0.00001397      -0.00000682
Si       1.93428788      10.05085467      20.92624761      -0.00003144       0.00001944       0.00004637
Si       1.93428788      10.05085467      23.29525678      -0.00002328       0.00006068      -0.00000515
Si       1.93428788      12.28437793      24.08492650      -0.00009222       0.00002122       0.00002923
Si       1.93428788      12.28437793      26.45393566      -0.00001730       0.00004487      -0.00003224
Si       3.86857576       6.70056978      20.92624761       0.00000152       0.00001278       0.00005106
Si       3.86857576       6.70056978      23.29525678      -0.00005832       0.00009612      -0.00010040
Si       3.86857576       8.93409304      24.08492650      -0.00007618       0.00000963       0.00003932
Si       3.86857576       8.93409304      26.45393566       0.00003184       0.00007783      -0.00001275
Si       3.86857576      11.16761630      27.24360538      -0.00002144       0.00000669      -0.00002005
Si       3.86857576      11.16761630       1.18450458       0.00000440      -0.00000876       0.00003276
Si       5.80286365       7.81733141      27.24360538      -0.00000000       0.00004592       0.00008309
Si       5.80286365       7.81733141       1.18450458       0.00000000       0.00004156       0.00005960
Si       5.80286365      10.05085467      20.92624761       0.00000000      -0.00002655       0.00000522
Si       5.80286365      10.05085467      23.29525678      -0.00000000       0.00000748      -0.00004384
Si       5.80286365      12.28437793      24.08492650      -0.00000000       0.00001657       0.00003720
Si       5.80286365      12.28437793      26.45393566      -0.00000000       0.00002807      -0.00000878
Si       7.73715153       6.70056978      20.92624761      -0.00000152       0.00001278       0.00005106
Si       7.73715153       6.70056978      23.29525678       0.00005832       0.00009612      -0.00010040
Si       7.73715153       8.93409304      24.08492650       0.00007618       0.00000963       0.00003932
Si       7.73715153       8.93409304      26.45393566      -0.00003184       0.00007783      -0.00001275
Si       7.73715153      11.16761630      27.24360538       0.00002144       0.00000669      -0.00002005
Si       7.73715153      11.16761630       1.18450458      -0.00000440      -0.00000876       0.00003276
Si       9.67143941       7.81733141      27.24360538      -0.00001839      -0.00001351      -0.00002858
Si       9.67143941       7.81733141       1.18450458      -0.00002250      -0.00001397      -0.00000682
Si       9.67143941      10.05085467      20.92624761       0.00003144       0.00001944       0.00004637
Si       9.67143941      10.05085467      23.29525678       0.00002328       0.00006068      -0.00000515
Si       9.67143941      12.28437793      24.08492650       0.00009222       0.00002122       0.00002923
Si       9.67143941      12.28437793      26.45393566       0.00001730       0.00004487      -0.00003224
Si      11.60572729      13.40113956       1.97417430       0.00000000       0.00009964       0.00012019
Si      11.60572729      13.40113956       4.34318347      -0.00000000      -0.00000812      -0.00000479
Si      11.60572729       2.23352326       5.13285319      -0.00000000      -0.00006336       0.00002594
Si      11.60572729       2.23352326       7.50186235      -0.00000000      -0.00005086       0.00005243
B       11.60572729       4.46704652       8.29153207       0.00000000      -0.00008279      -0.00004340
Si       0.00000000       4.46704652      10.66054124      -0.00000000      -0.00005472       0.00005170
Si       1.93428788       1.11676163       8.29153207      -0.00000717      -0.00007394      -0.00002733
Si       1.93428788       1.11676163      10.66054124       0.00000436      -0.00005195       0.00005068
Si       1.93428788       3.35028489       1.97417430       0.00004992       0.00004765       0.00001871
Si       1.93428788       3.35028489       4.34318347       0.00006806      -0.00000340      -0.00001751
Si       1.93428788       5.58380815       5.13285319       0.00004909      -0.00001960      -0.00004757
Si       1.93428788       5.58380815       7.50186235       0.00006564      -0.00004954       0.00001680
Si       3.86857576      13.40113956       1.97417430       0.00001201       0.00002575       0.00001614
Si       3.86857576      13.40113956       4.34318347       0.00002870       0.00001770       0.00001568
Si       3.86857576       2.23352326       5.13285319       0.00000244      -0.00001655      -0.00000374
Si       3.86857576       2.23352326       7.50186235       0.00003717      -0.00004202       0.00003887
Si       3.86857576       4.46704652       8.29153207       0.00004943      -0.00002887       0.00000192
Si       3.86857576       4.46704652      10.66054124      -0.00000835      -0.00005341       0.00002041
Si       5.80286365       1.11676163       8.29153207       0.00000000      -0.00000899      -0.00002650
Si       5.80286365       1.11676163      10.66054124       0.00000000      -0.00007690      -0.00000231
Si       5.80286365       3.35028489       1.97417430      -0.00000000       0.00005253      -0.00005369
Si       5.80286365       3.35028489       4.34318347      -0.00000000      -0.00008575       0.00000525
B        5.80286365       5.58380815       5.13285319       0.00000000       0.00001585       0.00003123
Si       5.80286365       5.58380815       7.50186235       0.00000000      -0.00011889       0.00010511
Si       7.73715153      13.40113956       1.97417430      -0.00001201       0.00002575       0.00001614
Si       7.73715153      13.40113956       4.34318347      -0.00002870       0.00001770       0.00001568
Si       7.73715153       2.23352326       5.13285319      -0.00000244      -0.00001655      -0.00000374
Si       7.73715153       2.23352326       7.50186235      -0.00003717      -0.00004202       0.00003887
Si       7.73715153       4.46704652       8.29153207      -0.00004943      -0.00002887       0.00000192
Si       7.73715153       4.46704652      10.66054124       0.00000835      -0.00005341       0.00002041
Si       9.67143941       1.11676163       8.29153207       0.00000717      -0.00007394      -0.00002733
Si       9.67143941       1.11676163      10.66054124      -0.00000436      -0.00005195       0.00005068
Si       9.67143941       3.35028489       1.97417430      -0.00004992       0.00004765       0.00001871
Si       9.67143941       3.35028489       4.34318347      -0.00006806      -0.00000340      -0.00001751
Si       9.67143941       5.58380815       5.13285319      -0.00004909      -0.00001960      -0.00004757
Si       9.67143941       5.58380815       7.50186235      -0.00006564      -0.00004954       0.00001680
Si      11.60572729       6.70056978       1.97417430      -0.00000000      -0.00007302      -0.00000004
Si      11.60572729       6.70056978       4.34318347       0.00000000      -0.00005105      -0.00002226
Si      11.60572729       8.93409304       5.13285319      -0.00000000      -0.00006482       0.00000216
Si      11.60572729       8.93409304       7.50186235       0.00000000      -0.00004826       0.00000909
Si      11.60572729      11.16761630       8.29153207      -0.00000000      -0.00003916      -0.00006729
B        0.00000000      11.16761630      10.66054124      -0.00000000      -0.00001174      -0.00006282
Si       1.93428788       7.81733141       8.29153207      -0.00001176      -0.00009729      -0.00002957
Si       1.93428788       7.81733141      10.66054124      -0.00001728      -0.00006076       0.00002105
Si       1.93428788      10.05085467       1.97417430       0.00014341      -0.00007922       0.00007427
Si       1.93428788      10.05085467       4.34318347      -0.00000363      -0.00005310      -0.00004157
Si       1.93428788      12.28437793       5.13285319      -0.00007362      -0.00004011       0.00006034
Si       1.93428788      12.28437793       7.50186235      -0.00000749      -0.00005720       0.00002659
Si       3.86857576       6.70056978       1.97417430       0.00011051      -0.00003012       0.00004034
Si       3.86857576       6.70056978       4.34318347      -0.00012266       0.00004324      -0.00007513
Si       3.86857576       8.93409304       5.13285319       0.00001545      -0.00006171       0.00000029
Si       3.86857576       8.93409304       7.50186235       0.00001020       0.00000962       0.00001984
Si       3.86857576      11.16761630       8.29153207      -0.00007388      -0.00003761      -0.00003359
Si       3.86857576      11.16761630      10.66054124      -0.00000330      -0.00000923       0.00003837
Si       5.80286365       7.81733141       8.29153207       0.00000000      -0.00005372       0.00002142
Si       5.80286365       7.81733141      10.66054124      -0.00000000       0.00003784       0.00009488
Si       5.80286365      10.05085467       1.97417430      -0.00000000      -0.00003324       0.00000708
Si       5.80286365      10.05085467       4.34318347      -0.00000000       0.00001026      -0.00001687
Si       5.80286365      12.28437793       5.13285319      -0.00000000      -0.00000332       0.00001237
Si       5.80286365      12.28437793       7.50186235       0.00000000       0.00002748      -0.00000031
Si       7.73715153       6.70056978       1.97417430      -0.00011051      -0.00003012       0.00004034
Si       7.73715153       6.70056978       4.34318347       0.00012266       0.00004324      -0.00007513
Si       7.73715153       8.93409304       5.13285319      -0.00001545      -0.00006171       0.00000029
Si       7.73715153       8.93409304       7.50186235      -0.00001020       0.00000962       0.00001984
Si       7.73715153      11.16761630       8.29153207       0.00007388      -0.00003761      -0.00003359
Si       7.73715153      11.16761630      10.66054124       0.00000330      -0.00000923       0.00003837
Si       9.67143941       7.81733141       8.29153207       0.00001176      -0.00009729      -0.00002957
Si       9.67143941       7.81733141      10.66054124       0.00001728      -0.00006076       0.00002105
Si       9.67143941      10.05085467       1.97417430      -0.00014341      -0.00007922       0.00007427
Si       9.67143941      10.05085467       4.34318347       0.00000363      -0.00005310      -0.00004157
Si       9.67143941      12.28437793       5.13285319       0.00007362      -0.00004011       0.00006034
Si       9.67143941      12.28437793       7.50186235       0.00000749      -0.00005720       0.00002659
Si      11.60572729      13.40113956      11.45021096      -0.00000000      -0.00006476       0.00004383
Si      11.60572729      13.40113956      13.81922012       0.00000000       0.00001959       0.00004988
Si      11.60572729       2.23352326      14.60888984      -0.00000000       0.00000804       0.00005053
Si      11.60572729       2.23352326      16.97789901      -0.00000000       0.00010106      -0.00007803
Si      11.60572729       4.46704652      17.76756873       0.00000000       0.00000813      -0.00005789
Si       0.00000000       4.46704652      20.13657789      -0.00000000       0.00011891      -0.00009275
Si       1.93428788       1.11676163      17.76756873      -0.00005035       0.00004978       0.00000454
Si       1.93428788       1.11676163      20.13657789      -0.00000925       0.00002497      -0.00001604
Si       1.93428788       3.35028489      11.45021096       0.00001175      -0.00003388       0.00005622
Si       1.93428788       3.35028489      13.81922012      -0.00000679      -0.00001054       0.00000419
Si       1.93428788       5.58380815      14.60888984       0.00004008      -0.00000613      -0.00001801
Si       1.93428788       5.58380815      16.97789901      -0.00001145       0.00000943      -0.00001156
Si       3.86857576      13.40113956      11.45021096      -0.00002659      -0.00004546      -0.00000876
Si       3.86857576      13.40113956      13.81922012      -0.00001684      -0.00001704       0.00001401
Si       3.86857576       2.23352326      14.60888984      -0.00000092       0.00004569      -0.00003313
Si       3.86857576       2.23352326      16.97789901       0.00002177       0.00000479      -0.00003037
Si       3.86857576       4.46704652      17.76756873       0.00003783       0.00006008      -0.00005397
Si       3.86857576       4.46704652      20.13657789      -0.00000137       0.00008525      -0.00010128
Si       5.80286365       1.11676163      17.76756873      -0.00000000       0.00001685      -0.00008758
Si       5.80286365       1.11676163      20.13657789       0.00000000      -0.00005399      -0.00011128
Si       5.80286365       3.35028489      11.45021096       0.00000000       0.00001445       0.00000697
Si       5.80286365       3.35028489      13.81922012      -0.00000000      -0.00010942      -0.00003264
B        5.80286365       5.58380815      14.60888984       0.00000000      -0.00002497       0.00002038
Si       5.80286365       5.58380815      16.97789901      -0.00000000      -0.00005410       0.00005919
Si       7.73715153      13.40113956      11.45021096       0.00002659      -0.00004546      -0.00000876
Si       7.73715153      13.40113956      13.81922012       0.00001684      -0.00001704       0.00001401
Si       7.73715153       2.23352326      14.60888984       0.00000092       0.00004569      -0.00003313
Si       7.73715153       2.23352326      16.97789901      -0.00002177       0.00000479      -0.00003037
Si       7.73715153       4.46704652      17.76756873      -0.00003783       0.00006008      -0.00005397
Si       7.73715153       4.46704652      20.13657789       0.00000137       0.00008525      -0.00010128
Si       9.67143941       1.11676163      17.76756873       0.00005035       0.00004978       0.00000454
Si       9.67143941       1.11676163      20.13657789       0.00000925       0.00002497      -0.00001604
Si       9.67143941       3.35028489      11.45021096      -0.00001175      -0.00003388       0.00005622
Si       9.67143941       3.35028489      13.81922012       0.00000679      -0.00001054       0.00000419
Si       9.67143941       5.58380815      14.60888984      -0.00004008      -0.00000613      -0.00001801
Si       9.67143941       5.58380815      16.97789901       0.00001145       0.00000943      -0.00001156
Si      11.60572729       6.70056978      11.45021096       0.00000000      -0.00007985       0.00005278
Si      11.60572729       6.70056978      13.81922012      -0.00000000      -0.00005805       0.00003134
Si      11.60572729       8.93409304      14.60888984       0.00000000      -0.00008789      -0.00004745
Si      11.60572729       8.93409304      16.97789901       0.00000000      -0.00001728       0.00000955
Si      11.60572729      11.16761630      17.76756873      -0.00000000       0.00001643       0.00007138
B        0.00000000      11.16761630      20.13657789       0.00000000       0.00009407      -0.00001353
Si       1.93428788       7.81733141      17.76756873      -0.00000139      -0.00005847      -0.00001423
Si       1.93428788       7.81733141      20.13657789       0.00001276       0.00002365      -0.00001808
Si       1.93428788      10.05085467      11.45021096      -0.00003413      -0.00006687      -0.00000813
Si       1.93428788      10.05085467      13.81922012      -0.00002958      -0.00004012       0.00002724
Si       1.93428788      12.28437793      14.60888984      -0.00009152      -0.00004895       0.00004989
Si       1.93428788      12.28437793      16.97789901      -0.00000706      -0.00000356      -0.00002383
Si       3.86857576       6.70056978      11.45021096       0.00000483      -0.00008900       0.00006075
Si       3.86857576       6.70056978      13.81922012      -0.00011136       0.00000717      -0.00003534
Si       3.86857576       8.93409304      14.60888984      -0.00006650      -0.00007992      -0.00000588
Si       3.86857576       8.93409304      16.97789901      -0.00002918       0.00000882      -0.00001995
Si       3.86857576      11.16761630      17.76756873      -0.00004420      -0.00002096       0.00000881
Si       3.86857576      11.16761630      20.13657789       0.00000301       0.00002301      -0.00000163
Si       5.80286365       7.81733141      17.76756873      -0.00000000      -0.00005831       0.00003880
Si       5.80286365       7.81733141      20.13657789      -0.00000000       0.00006013       0.00008523
Si       5.80286365      10.05085467      11.45021096       0.00000000      -0.00004737      -0.00000570
Si       5.80286365      10.05085467      13.81922012       0.00000000      -0.00007139      -0.00002660
Si       5.80286365      12.28437793      14.60888984       0.00000000      -0.00002449       0.00001540
Si       5.80286365      12.28437793      16.97789901       0.00000000      -0.00002551       0.00000090
Si       7.73715153       6.70056978      11.45021096      -0.00000483      -0.00008900       0.00006075
Si       7.73715153       6.70056978      13.81922012       0.00011136       0.00000717      -0.00003534
Si       7.73715153       8.93409304      14.60888984       0.00006650      -0.00007992      -0.00000588
Si       7.73715153       8.93409304      16.97789901       0.00002918       0.00000882      -0.00001995
Si       7.73715153      11.16761630      17.76756873       0.00004420      -0.00002096       0.00000881
Si       7.73715153      11.16761630      20.13657789      -0.00000301       0.00002301      -0.00000163
Si       9.67143941       7.81733141      17.76756873       0.00000139      -0.00005847      -0.00001423
Si       9.67143941       7.81733141      20.13657789      -0.00001276       0.00002365      -0.00001808
Si       9.67143941      10.05085467      11.45021096       0.00003413      -0.00006687      -0.00000813
Si       9.67143941      10.05085467      13.81922012       0.00002958      -0.00004012       0.00002724
Si       9.67143941      12.28437793      14.60888984       0.00009152      -0.00004895       0.00004989
Si       9.67143941      12.28437793      16.97789901       0.00000706      -0.00000356      -0.00002383
