216
Lattice="11.605727294873521 0.0 0.0 0.0 13.401139555673227 0.0 0.0 0.0 28.428109966331448" Properties=species:S:1:pos:R:3:forces:R:3:energies:R:1 energy=-1163.8039124584488 stress="0.0010388716854835586 2.0465712868852104e-17 -1.5195339751807155e-17 2.0465712868852104e-17 0.0010418785236675264 1.1540666831645922e-07 -1.5195339751807155e-17 1.1540666831645922e-07 0.00104333804237164" free_energy=-1163.8039124584488 pbc="T T T"
Si      11.60572729      13.40078171      20.92600632      -0.00000000       0.00001078      -0.00004117      -5.38306995
Si       0.00000000      13.40010287      23.29560545      -0.00000000       0.00002246       0.00007646      -5.38593979
Si       0.00000000       2.23166867      24.08750731      -0.00000000       0.00007795       0.00000683      -5.38354032
Si       0.00000000       2.22532425      26.45973610       0.00000000      -0.00006412       0.00008339      -5.37921648
Si       0.00000000       4.46334259      27.24474712      -0.00000000       0.00008834       0.00005028      -5.38453132
Si      11.60572729       4.46877031       1.18514966      -0.00000000       0.00002320       0.00000937      -5.38873399
Si       1.93296930       1.11016507      27.24857303      -0.00002181       0.00006335       0.00005242      -5.38394846
Si       1.93307062       1.10718276       1.18242795       0.00005035       0.00001024       0.00000444      -5.38282636
Si       1.93553338       3.35162958      20.92527653      -0.00002882       0.00004124      -0.00005834      -5.38478533
Si       1.93387159       3.35011910      23.29553129       0.00003370       0.00001011       0.00002942      -5.38355034
Si       1.93374145       5.58396320      24.08611480       0.00001315       0.00005344      -0.00005423      -5.38468298
Si       1.93281141       5.58491867      26.45603370       0.00003218       0.00007407       0.00003540      -5.38650542
Si       3.86899206       0.00016578      20.92597310      -0.00003370      -0.00001011      -0.00002942      -5.38355034
Si       3.86733026      13.39979486      23.29622786       0.00002882      -0.00004124       0.00005834      -5.38478533
Si       3.86841303       2.23323412      24.08606684      -0.00000021      -0.00009342       0.00001004      -5.38475116
Si       3.86708736       2.23241735      26.45574675      -0.00008763      -0.00006884       0.00009514      -5.38613625
Si       3.86780503       4.46713200      27.24431509       0.00003492      -0.00002840      -0.00001301      -5.38528146
Si       3.86707846       4.46799762       1.18613445       0.00008238      -0.00002139       0.00004988      -5.38646883
Si       5.80286365       1.11740467      27.24382363       0.00000000      -0.00015383       0.00010986      -5.38611609
Si       5.80286365       1.11471514       1.18430907      -0.00000000       0.00000692       0.00009263      -5.38917966
Si       5.80286365       3.35132157      20.92589894      -0.00000000      -0.00002246      -0.00007646      -5.38593979
Si       5.80286365       3.35064273      23.29549807      -0.00000000      -0.00001078       0.00004117      -5.38306995
Si       5.80286365       5.58464054      24.08612500       0.00000000      -0.00002946      -0.00007454      -5.38445612
Si       5.80286365       5.58533339      26.45582084       0.00000000      -0.00001396       0.00003540      -5.38356409
Si       7.73673524       0.00016578      20.92597310       0.00003370      -0.00001011      -0.00002942      -5.38355034
Si       7.73839703      13.39979486      23.29622786      -0.00002882      -0.00004124       0.00005834      -5.38478533
Si       7.73731427       2.23323412      24.08606684       0.00000021      -0.00009342       0.00001004      -5.38475116
Si       7.73863994       2.23241735      26.45574675       0.00008763      -0.00006884       0.00009514      -5.38613625
Si       7.73792226       4.46713200      27.24431509      -0.00003492      -0.00002840      -0.00001301      -5.38528146
Si       7.73864883       4.46799762       1.18613445      -0.00008238      -0.00002139       0.00004988      -5.38646883
Si       9.67275800       1.11016507      27.24857303       0.00002181       0.00006335       0.00005242      -5.38394846
Si       9.67265667       1.10718276       1.18242795      -0.00005035       0.00001024       0.00000444      -5.38282636
Si       9.67019391       3.35162958      20.92527653       0.00002882       0.00004124      -0.00005834      -5.38478533
Si       9.67185570       3.35011910      23.29553129      -0.00003370       0.00001011       0.00002942      -5.38355034
Si       9.67198584       5.58396320      24.08611480      -0.00001315       0.00005344      -0.00005423      -5.38468298
Si       9.67291588       5.58491867      26.45603370      -0.00003218       0.00007407       0.00003540      -5.38650542
Si       0.00000000       6.70093816      20.92477135      -0.00000000      -0.00010067      -0.00005881      -5.38374798
Si       0.00000000       6.70283212      23.29518043       0.00000000      -0.00003388       0.00008780      -5.38480192
Si       0.00000000       8.93516249      24.09100094      -0.00000000      -0.00000373       0.00001293      -5.38856545
Si       0.00000000       8.93572133      26.46457746       0.00000000      -0.00004802       0.00005303      -5.38303967
Si       0.00000000      11.16745071      27.23793769      -0.00000000       0.00009914       0.00005658      -5.36147226
P        0.00000000      11.16768573       1.18487159       0.00000000       0.00004344       0.00000938      -5.81766424
Si       1.92959286       7.82149241      27.24855320       0.00008628       0.00003550      -0.00005986      -5.38346741
Si       1.92672823       7.82332274       1.18229489       0.00004562       0.00001153       0.00003551      -5.38347437
Si       1.93462175      10.04990017      20.92566731       0.00003922      -0.00003654      -0.00007528      -5.38348458
Si       1.93379011      10.05081323      23.29542235       0.00001632      -0.00003404       0.00010318      -5.38574359
Si       1.93351074      12.28346287      24.09106945      -0.00002206       0.00002430       0.00002830      -5.38848880
Si       1.93325215      12.28307075      26.46468520       0.00002268       0.00002334       0.00002279      -5.38280792
Si       3.86907353       6.70061122      20.92608205      -0.00001632       0.00003404      -0.00010318      -5.38574359
Si       3.86824190       6.70152427      23.29583708      -0.00003922       0.00003654       0.00007528      -5.38348458
Si       3.86743236       8.93514229      24.08857691       0.00000961       0.00000102      -0.00006652      -5.38373629
Si       3.86283674       8.93817246      26.46084695      -0.00006173       0.00008506       0.00005484      -5.37938789
Si       3.86333772      11.17002368      27.24915315       0.00002855      -0.00007676       0.00009221      -5.38443596
Si       3.86134904      11.17023123       1.18316060       0.00003368       0.00000730       0.00000317      -5.38442042
Si       5.80286365       7.82059579      27.24606695       0.00000000      -0.00004608      -0.00004226      -5.38333051
Si       5.80286365       7.81770294       1.18599305       0.00000000       0.00001376       0.00001182      -5.38826051
Si       5.80286365      10.04859233      20.92632396      -0.00000000       0.00003388      -0.00008780      -5.38480192
Si       5.80286365      10.05048629      23.29673305       0.00000000       0.00010067       0.00005881      -5.38374798
Si       5.80286365      12.28436378      24.08710693      -0.00000000      -0.00003125      -0.00001185      -5.38527146
Si       5.80286365      12.28400157      26.45709672      -0.00000000      -0.00010045       0.00008987      -5.38903131
Si       7.73665376       6.70061122      20.92608205       0.00001632       0.00003404      -0.00010318      -5.38574359
Si       7.73748539       6.70152427      23.29583708       0.00003922       0.00003654       0.00007528      -5.38348458
Si       7.73829494       8.93514229      24.08857691      -0.00000961       0.00000102      -0.00006652      -5.38373629
Si       7.74289055       8.93817246      26.46084695       0.00006173       0.00008506       0.00005484      -5.37938789
Si       7.74238958      11.17002368      27.24915315      -0.00002855      -0.00007676       0.00009221      -5.38443596
Si       7.74437825      11.17023123       1.18316060      -0.00003368       0.00000730       0.00000317      -5.38442042
Si       9.67613444       7.82149241      27.24855320      -0.00008628       0.00003550      -0.00005986      -5.38346741
Si       9.67899906       7.82332274       1.18229489      -0.00004562       0.00001153       0.00003551      -5.38347437
Si       9.67110555      10.04990017      20.92566731      -0.00003922      -0.00003654      -0.00007528      -5.38348458
Si       9.67193718      10.05081323      23.29542235      -0.00001632      -0.00003404       0.00010318      -5.38574359
Si       9.67221656      12.28346287      24.09106945       0.00002206       0.00002430       0.00002830      -5.38848880
Si       9.67247515      12.28307075      26.46468520      -0.00002268       0.00002334       0.00002279      -5.38280792
Si       0.00000000       0.00606838       1.97651891      -0.00000000       0.00003319      -0.00007917      -5.36139324
Si       0.00000000      13.39227780       4.33845491       0.00000000      -0.00004008       0.00005582      -5.38301734
Si       0.00000000       2.22897072       5.12986822       0.00000000       0.00002809       0.00000581      -5.38842843
Si       0.00000000       2.23426772       7.50053888       0.00000000      -0.00001104      -0.00007793      -5.38525945
Si       0.00000000       4.46741279       8.29290299       0.00000000      -0.00005043       0.00001814      -5.38398914
Si       0.00000000       4.46740931      10.66398060      -0.00000000       0.00009679      -0.00003843      -5.38296431
Si       1.93428025       1.11681006       8.29228192      -0.00006771       0.00004410      -0.00003511      -5.38460610
Si       1.93565853       1.11897291      10.66254631       0.00007186       0.00002115      -0.00002869      -5.38320888
Si       1.93304432       3.34533900       1.97244599      -0.00007497       0.00001268       0.00005066      -5.38915076
Si       1.93354025       3.35113775       4.34254989       0.00008470      -0.00003693      -0.00005955      -5.38616091
Si       1.93301911       5.58572574       5.13120674       0.00003525       0.00001735       0.00007143      -5.38300006
Si       1.93451775       5.58413493       7.50156729       0.00001031       0.00001282      -0.00003322      -5.38463966
Si       3.86330481      13.39754518       1.97032856      -0.00003037      -0.00010524       0.00010851      -5.38434822
Si       3.86287345      13.39681277       4.33722884       0.00002600       0.00002471      -0.00000384      -5.37964021
Si       3.86720512       2.23131198       5.13084812      -0.00007186      -0.00002115       0.00002869      -5.38320888
Si       3.86858340       2.23347483       7.50111251       0.00006771      -0.00004410       0.00003511      -5.38460610
Si       3.86913177       4.46723401       8.29303674      -0.00007064      -0.00001017       0.00012189      -5.38621851
Si       3.87293495       4.46969412      10.66593581      -0.00004230      -0.00008967      -0.00005703      -5.38343102
Si       5.80286365       1.11601717       8.29285554      -0.00000000       0.00001104       0.00007793      -5.38525945
Si       5.80286365       1.12131417      10.66352620      -0.00000000      -0.00002809      -0.00000581      -5.38842843
Si       5.80286365       3.34988845       1.97294733      -0.00000000      -0.00006786       0.00013115      -5.38491315
Si       5.80286365       3.34901930       4.34227388      -0.00000000       0.00002602      -0.00000818      -5.38443171
Si       5.80286365       5.58374330       5.13158117      -0.00000000      -0.00002913       0.00000536      -5.38308611
Si       5.80286365       5.58370451       7.50061939       0.00000000       0.00003270       0.00004421      -5.38515386
Si       7.74242249      13.39754518       1.97032856       0.00003037      -0.00010524       0.00010851      -5.38434822
Si       7.74285384      13.39681277       4.33722884      -0.00002600       0.00002471      -0.00000384      -5.37964021
Si       7.73852218       2.23131198       5.13084812       0.00007186      -0.00002115       0.00002869      -5.38320888
Si       7.73714390       2.23347483       7.50111251      -0.00006771      -0.00004410       0.00003511      -5.38460610
Si       7.73659553       4.46723401       8.29303674       0.00007064      -0.00001017       0.00012189      -5.38621851
Si       7.73279235       4.46969412      10.66593581       0.00004230      -0.00008967      -0.00005703      -5.38343102
Si       9.67144704       1.11681006       8.29228192       0.00006771       0.00004410      -0.00003511      -5.38460610
Si       9.67006877       1.11897291      10.66254631      -0.00007186       0.00002115      -0.00002869      -5.38320888
Si       9.67268298       3.34533900       1.97244599       0.00007497       0.00001268       0.00005066      -5.38915076
Si       9.67218705       3.35113775       4.34254989      -0.00008470      -0.00003693      -0.00005955      -5.38616091
Si       9.67270818       5.58572574       5.13120674      -0.00003525       0.00001735       0.00007143      -5.38300006
Si       9.67120955       5.58413493       7.50156729      -0.00001031       0.00001282      -0.00003322      -5.38463966
Si       0.00000000       6.70713583       1.97086181       0.00000000      -0.00000383       0.00007924      -5.38333679
Si       0.00000000       6.70837771       4.33776208      -0.00000000       0.00003631      -0.00009828      -5.37999336
Si       0.00000000       8.93983015       5.12779524      -0.00000000      -0.00007136       0.00014809      -5.38340023
Si       0.00000000       8.93466560       7.50093146      -0.00000000      -0.00007770      -0.00016644      -5.38626018
Si       0.00000000      11.16771993       8.29277503       0.00000000      -0.00003270      -0.00004421      -5.38515386
Si      11.60572729      11.16768114      10.66181325       0.00000000       0.00002913      -0.00000536      -5.38308611
Si       1.93389183       7.81784642       8.29339810       0.00000292      -0.00002934       0.00000955      -5.38590391
Si       1.93789002       7.81478056      10.66361893      -0.00001492       0.00000518      -0.00002600      -5.38810333
Si       1.94026550      10.04785069       1.97658178       0.00006667       0.00001897       0.00004287      -5.36063866
Si       1.92689406      10.05533130       4.33854996       0.00006773      -0.00007145       0.00000158      -5.38338561
Si       1.92992870      12.28173033       5.12745861       0.00004230       0.00008967       0.00005703      -5.38343102
Si       1.93373188      12.28419044       7.50035768       0.00007064       0.00001017      -0.00012189      -5.38621851
Si       3.86456470       6.70390854       1.97262868      -0.00002537       0.00003266       0.00006628      -5.38820161
Si       3.86882418       6.70104459       4.34246752       0.00006242       0.00005217      -0.00000441      -5.38668000
Si       3.86497363       8.93664389       5.12977550       0.00001492      -0.00000518       0.00002600      -5.38810333
Si       3.86897182       8.93357802       7.49999632      -0.00000292       0.00002934      -0.00000955      -5.38590391
Si       3.86834590      11.16728951       8.29182713      -0.00001031      -0.00001282       0.00003322      -5.38463966
Si       3.86984453      11.16569871      10.66218769      -0.00003525      -0.00001735      -0.00007143      -5.38300006
Si       5.80286365       7.81675885       8.29246296      -0.00000000       0.00007770       0.00016644      -5.38626018
Si       5.80286365       7.81159429      10.66559919       0.00000000       0.00007136      -0.00014809      -5.38340023
Si       5.80286365      10.05464828       1.97161508      -0.00000000       0.00000422       0.00008797      -5.39300590
Si       5.80286365      10.05014492       4.34229155       0.00000000       0.00004565      -0.00001223      -5.38838737
Si       5.80286365      12.28401513       5.12941382       0.00000000      -0.00009679       0.00003843      -5.38296431
Si       5.80286365      12.28401166       7.50049144       0.00000000       0.00005043      -0.00001814      -5.38398914
Si       7.74116260       6.70390854       1.97262868       0.00002537       0.00003266       0.00006628      -5.38820161
Si       7.73690312       6.70104459       4.34246752      -0.00006242       0.00005217      -0.00000441      -5.38668000
Si       7.74075367       8.93664389       5.12977550      -0.00001492      -0.00000518       0.00002600      -5.38810333
Si       7.73675548       8.93357802       7.49999632       0.00000292       0.00002934      -0.00000955      -5.38590391
Si       7.73738140      11.16728951       8.29182713       0.00001031      -0.00001282       0.00003322      -5.38463966
Si       7.73588276      11.16569871      10.66218769       0.00003525      -0.00001735      -0.00007143      -5.38300006
Si       9.67183547       7.81784642       8.29339810      -0.00000292      -0.00002934       0.00000955      -5.38590391
Si       9.66783727       7.81478056      10.66361893       0.00001492       0.00000518      -0.00002600      -5.38810333
Si       9.66546180      10.04785069       1.97658178      -0.00006667       0.00001897       0.00004287      -5.36063866
Si       9.67883324      10.05533130       4.33854996      -0.00006773      -0.00007145       0.00000158      -5.38338561
Si       9.67579859      12.28173033       5.12745861      -0.00004230       0.00008967       0.00005703      -5.38343102
Si       9.67199541      12.28419044       7.50035768      -0.00007064       0.00001017      -0.00012189      -5.38621851
Si       0.00000000       0.00126559      11.45112054      -0.00000000      -0.00002602       0.00000818      -5.38443171
Si       0.00000000       0.00039644      13.82044709       0.00000000       0.00006786      -0.00013115      -5.38491315
Si       0.00000000       2.23556975      14.60908536      -0.00000000      -0.00000692      -0.00009263      -5.38917966
Si       0.00000000       2.23288022      16.97768076      -0.00000000       0.00015383      -0.00010986      -5.38611609
Si       0.00000000       4.46742287      17.76440767       0.00000000       0.00010045      -0.00008987      -5.38903131
Si      11.60572729       4.46706067      20.13439746       0.00000000       0.00003125       0.00001185      -5.38527146
Si       1.93577629       1.11786754      17.76575765       0.00008763       0.00006884      -0.00009514      -5.38613625
Si       1.93445062       1.11705077      20.13543755       0.00000021       0.00009342      -0.00001004      -5.38475116
Si       1.93999019       3.35461167      11.45616558      -0.00002600      -0.00002471       0.00000384      -5.37964021
Si       1.93955884       3.35387927      13.82306587       0.00003037       0.00010524      -0.00010851      -5.38434822
Si       1.94151460       5.58119321      14.61023383      -0.00003368      -0.00000730      -0.00000317      -5.38442042
Si       1.93952593       5.58140076      16.97235124      -0.00002855       0.00007676      -0.00009221      -5.38443596
Si       3.86932340      13.40028670      11.45084454      -0.00008470       0.00003693       0.00005955      -5.38616091
Si       3.86981933       0.00494589      13.82094843       0.00007497      -0.00001268      -0.00005066      -5.38915076
Si       3.86979303       2.24310213      14.61096648      -0.00005035      -0.00001024      -0.00000444      -5.38282636
Si       3.86989435       2.24011982      16.97293136       0.00002181      -0.00006335      -0.00005242      -5.38394846
Si       3.86961150       4.46835370      17.75681919      -0.00002268      -0.00002334      -0.00002279      -5.38280792
Si       3.86935291       4.46796158      20.13043494       0.00002206      -0.00002430      -0.00002830      -5.38848880
Si       5.80286365       1.12496064      17.76176829       0.00000000       0.00006412      -0.00008339      -5.37921648
Si       5.80286365       1.11861622      20.13399708       0.00000000      -0.00007795      -0.00000683      -5.38354032
Si       5.80286365       3.35914664      11.45493952       0.00000000       0.00004008      -0.00005582      -5.38301734
Si       5.80286365       3.34421651      13.81687551       0.00000000      -0.00003319       0.00007917      -5.36139324
P        5.80286365       5.58373871      14.60852283       0.00000000      -0.00004344      -0.00000938      -5.81766424
Si       5.80286365       5.58397373      16.98356670      -0.00000000      -0.00009914      -0.00005658      -5.36147226
Si       7.73640389      13.40028670      11.45084454       0.00008470       0.00003693       0.00005955      -5.38616091
Si       7.73590797       0.00494589      13.82094843      -0.00007497      -0.00001268      -0.00005066      -5.38915076
Si       7.73593427       2.24310213      14.61096648       0.00005035      -0.00001024      -0.00000444      -5.38282636
Si       7.73583295       2.24011982      16.97293136      -0.00002181      -0.00006335      -0.00005242      -5.38394846
Si       7.73611579       4.46835370      17.75681919       0.00002268      -0.00002334      -0.00002279      -5.38280792
Si       7.73637439       4.46796158      20.13043494      -0.00002206      -0.00002430      -0.00002830      -5.38848880
Si       9.66995100       1.11786754      17.76575765      -0.00008763       0.00006884      -0.00009514      -5.38613625
Si       9.67127667       1.11705077      20.13543755      -0.00000021       0.00009342      -0.00001004      -5.38475116
Si       9.66573710       3.35461167      11.45616558       0.00002600      -0.00002471       0.00000384      -5.37964021
Si       9.66616845       3.35387927      13.82306587      -0.00003037       0.00010524      -0.00010851      -5.38434822
Si       9.66421269       5.58119321      14.61023383       0.00003368      -0.00000730      -0.00000317      -5.38442042
Si       9.66620136       5.58140076      16.97235124       0.00002855       0.00007676      -0.00009221      -5.38443596
Si       0.00000000       6.70127952      11.45110287       0.00000000      -0.00004565       0.00001223      -5.38838737
Si       0.00000000       6.69677616      13.82177934       0.00000000      -0.00000422      -0.00008797      -5.39300590
Si       0.00000000       8.93372151      14.60740138       0.00000000      -0.00001376      -0.00001182      -5.38826051
Si       0.00000000       8.93082865      16.97543744      -0.00000000       0.00004608       0.00004226      -5.38333051
Si       0.00000000      11.16609106      17.76568356       0.00000000       0.00001396      -0.00003540      -5.38356409
Si       0.00000000      11.16678391      20.13537939      -0.00000000       0.00002946       0.00007454      -5.38445612
Si       1.94002690       7.81325199      17.76065745       0.00006173      -0.00008506      -0.00005484      -5.37938789
Si       1.93543129       7.81628215      20.13292748      -0.00000961      -0.00000102       0.00006652      -5.38373629
Si       1.93403947      10.05037986      11.45092691      -0.00006242      -0.00005217       0.00000441      -5.38668000
Si       1.93829895      10.04751590      13.82076574       0.00002537      -0.00003266      -0.00006628      -5.38820161
Si       1.93578519      12.28342682      14.60725998      -0.00008238       0.00002139      -0.00004988      -5.38646883
Si       1.93505862      12.28429245      16.97718930      -0.00003492       0.00002840       0.00001301      -5.38528146
Si       3.87596959       6.69609315      11.45484447      -0.00006773       0.00007145      -0.00000158      -5.38338561
Si       3.86259815       6.70357376      13.81681264      -0.00006667      -0.00001897      -0.00004287      -5.36063866
Si       3.87613542       8.92810171      14.61109953      -0.00004562      -0.00001153      -0.00003551      -5.38347437
Si       3.87327079       8.92993203      16.97295119      -0.00008628      -0.00003550       0.00005986      -5.38346741
Si       3.87005223      11.16650578      17.76547069      -0.00003218      -0.00007407      -0.00003540      -5.38650542
Si       3.86912220      11.16746124      20.13538959      -0.00001315      -0.00005344       0.00005423      -5.38468298
Si       5.80286365       7.81570311      17.75692694       0.00000000       0.00004802      -0.00005303      -5.38303967
Si       5.80286365       7.81626196      20.13050345      -0.00000000       0.00000373      -0.00001293      -5.38856545
Si       5.80286365      10.04304673      11.45563234      -0.00000000      -0.00003631       0.00009828      -5.37999336
Si       5.80286365      10.04428861      13.82253262       0.00000000       0.00000383      -0.00007924      -5.38333679
Si       5.80286365      12.28265413      14.60824477       0.00000000      -0.00002320      -0.00000937      -5.38873399
Si       5.80286365      12.28808185      16.97675727      -0.00000000      -0.00008834      -0.00005028      -5.38453132
Si       7.72975770       6.69609315      11.45484447       0.00006773       0.00007145      -0.00000158      -5.38338561
Si       7.74312914       6.70357376      13.81681264       0.00006667      -0.00001897      -0.00004287      -5.36063866
Si       7.72959188       8.92810171      14.61109953       0.00004562      -0.00001153      -0.00003551      -5.38347437
Si       7.73245650       8.92993203      16.97295119       0.00008628      -0.00003550       0.00005986      -5.38346741
Si       7.73567506      11.16650578      17.76547069       0.00003218      -0.00007407      -0.00003540      -5.38650542
Si       7.73660510      11.16746124      20.13538959       0.00001315      -0.00005344       0.00005423      -5.38468298
Si       9.66570039       7.81325199      17.76065745      -0.00006173      -0.00008506      -0.00005484      -5.37938789
Si       9.67029601       7.81628215      20.13292748       0.00000961      -0.00000102       0.00006652      -5.38373629
Si       9.67168783      10.05037986      11.45092691       0.00006242      -0.00005217       0.00000441      -5.38668000
Si       9.66742835      10.04751590      13.82076574      -0.00002537      -0.00003266      -0.00006628      -5.38820161
Si       9.66994211      12.28342682      14.60725998       0.00008238       0.00002139      -0.00004988      -5.38646883
Si       9.67066868      12.28429245      16.97718930       0.00003492       0.00002840       0.00001301      -5.38528146
