216
Lattice="11.605727294873521 0.0 0.0 0.0 13.401139555673227 0.0 0.0 0.0 28.428109966331448" Properties=species:S:1:pos:R:3:forces:R:3:energies:R:1 energy=-1168.438940903158 stress="0.01475497215993504 -2.13087531624998e-17 1.484501653497837e-17 -2.13087531624998e-17 0.014759265784761767 9.574961695734032e-06 1.484501653497837e-17 9.574961695734032e-06 0.015089604350048856" free_energy=-1168.438940903158 pbc="T T T"
Si       0.00300442       0.00051974      21.04798436       0.00003048      -0.00000830       0.00002647      -5.37792138
Si       0.00798016       0.00748299      23.45579396       0.00004312       0.00006045      -0.00006822      -5.35295107
Si      11.59187455       2.23689646      24.30000380      -0.00002399       0.00001799      -0.00005469      -5.33660513
Si      11.45868461       2.30348933      26.71961406      -0.00012442       0.00008060       0.00004640      -5.33814631
B       11.57506377       4.43034152      27.28481273       0.00000316       0.00013991       0.00011017      -6.51362600
Si      11.59789181       4.45502573       0.94130968      -0.00011038      -0.00000914      -0.00011778      -5.33106925
Si       1.89765944       1.11559325      27.48626412      -0.00007048       0.00010761       0.00008014      -5.33519930
B        1.92525886       1.11380589       1.14383189      -0.00007965       0.00000049      -0.00010699      -6.56945430
Si       1.92861365       3.34935279      21.03524749       0.00000219       0.00004404       0.00004321      -5.38060076
Si       1.90969195       3.34946306      23.43292395       0.00002240       0.00000155      -0.00002995      -5.36551988
Si       1.90180248       5.57967940      24.25742094      -0.00008752       0.00004785       0.00001267      -5.35248448
Si       1.73916499       5.50762807      26.65648180      -0.00014309      -0.00007021       0.00001459      -5.32476650
Si       3.87035859       0.00010721      21.02225400       0.00004517       0.00001542       0.00001300      -5.38289191
Si       3.87609775      13.39537509      23.41025145       0.00000925       0.00005072       0.00004176      -5.37361275
Si       3.85896860       2.23241204      24.21410931       0.00001021       0.00001680       0.00007248      -5.37665293
Si       3.85197218       2.23956636      26.59008891      -0.00008532       0.00000031      -0.00000651      -5.31538492
Si       3.84085191       4.52961863      27.27746707      -0.00009567      -0.00005040      -0.00006652      -5.33834176
Si       3.86349248       4.47047622       1.16686789      -0.00007325       0.00004619       0.00007958      -5.29131779
Si       5.82594043       1.06687709      27.26933726      -0.00004589       0.00006301      -0.00007342      -5.33211808
Si       5.79744266       1.10887781       1.16115105      -0.00003510      -0.00001686       0.00006989      -5.29899131
Si       5.80663171       3.35506921      21.04480595      -0.00000574       0.00003469      -0.00006936      -5.37720654
Si       5.81596909       3.36476052      23.45133805      -0.00003544      -0.00003310      -0.00004469      -5.34387402
Si       5.81201559       5.61686507      24.26594742      -0.00006824       0.00001140      -0.00001937      -5.36116856
Si       5.82396967       5.79798972      26.66160254      -0.00005785       0.00009329      -0.00002840      -5.29532038
Si       7.73468248      13.40056458      21.03470355       0.00002473       0.00000486       0.00000731      -5.38065986
Si       7.72758407      13.40061955      23.43247776       0.00010335       0.00003767      -0.00004269      -5.36303894
Si       7.76498217       2.23060400      24.25563798      -0.00000862       0.00000180      -0.00002422      -5.35728403
Si       7.90202540       2.16310575      26.65192336       0.00011399      -0.00002293      -0.00002406      -5.32592391
Si       7.77699650       4.46897505      27.48975985      -0.00010742       0.00004006       0.00008493      -5.32592969
B        7.74713635       4.46738060       1.14576064       0.00002812       0.00001823      -0.00016031      -6.56587861
B        9.67777274       1.16018559      27.28817669      -0.00003936      -0.00004656       0.00014720      -6.53624726
Si       9.67027077       1.12824571       0.94287886      -0.00001075      -0.00001122      -0.00016815      -5.31674891
Si       9.67472504       3.34594491      21.02680086       0.00001392       0.00000662       0.00009193      -5.38360537
Si       9.68522211       3.33604375      23.41677080      -0.00005454       0.00003530      -0.00003756      -5.38400005
Si       9.68602205       5.55575746      24.24813162      -0.00006470       0.00004209      -0.00001981      -5.34498213
Si       9.81766708       5.45331007      26.64630004      -0.00009510       0.00000755       0.00003634      -5.35305408
Si      11.60394447       6.70067699      21.02225400      -0.00004517       0.00001542       0.00001300      -5.38289191
Si      11.59820531       6.69480531      23.41025145      -0.00000925       0.00005072       0.00004176      -5.37361275
Si       0.00960716       8.93298182      24.21410931      -0.00001021       0.00001680       0.00007248      -5.37665293
Si       0.01660359       8.94013614      26.59008891       0.00008532       0.00000031      -0.00000651      -5.31538492
Si       0.02772386      11.23018841      27.27746707       0.00009567      -0.00005040      -0.00006652      -5.33834176
Si       0.00508329      11.17104599       1.16686789       0.00007325       0.00004619       0.00007958      -5.29131779
Si       1.97091632       7.81616303      27.48626412       0.00007048       0.00010761       0.00008014      -5.33519930
B        1.94331691       7.81437567       1.14383189       0.00007965       0.00000049      -0.00010699      -6.56945430
Si       1.93996211      10.04992256      21.03524749      -0.00000219       0.00004404       0.00004321      -5.38060076
Si       1.95888381      10.05003283      23.43292395      -0.00002240       0.00000155      -0.00002995      -5.36551988
Si       1.96677328      12.28024917      24.25742094       0.00008752       0.00004785       0.00001267      -5.35248448
Si       2.12941078      12.20819784      26.65648180       0.00014309      -0.00007021       0.00001459      -5.32476650
Si       3.86557135       6.70108952      21.04798436      -0.00003048      -0.00000830       0.00002647      -5.37792138
Si       3.86059561       6.70805276      23.45579396      -0.00004312       0.00006045      -0.00006822      -5.35295107
Si       3.88242851       8.93746624      24.30000380       0.00002399       0.00001799      -0.00005469      -5.33660513
Si       4.01561845       9.00405910      26.71961406       0.00012442       0.00008060       0.00004640      -5.33814631
B        3.89923929      11.13091130      27.28481273      -0.00000316       0.00013991       0.00011017      -6.51362600
Si       3.87641125      11.15559551       0.94130968       0.00011038      -0.00000914      -0.00011778      -5.33106925
B        5.79653032       7.86075537      27.28817669       0.00003936      -0.00004656       0.00014720      -6.53624726
Si       5.80403229       7.82881549       0.94287886       0.00001075      -0.00001122      -0.00016815      -5.31674891
Si       5.79957802      10.04651469      21.02680086      -0.00001392       0.00000662       0.00009193      -5.38360537
Si       5.78908095      10.03661353      23.41677080       0.00005454       0.00003530      -0.00003756      -5.38400005
Si       5.78828101      12.25632724      24.24813162       0.00006470       0.00004209      -0.00001981      -5.34498213
Si       5.65663598      12.15387985      26.64630004       0.00009510       0.00000755       0.00003634      -5.35305408
Si       7.73962058       6.69999480      21.03470355      -0.00002473       0.00000486       0.00000731      -5.38065986
Si       7.74671899       6.70004978      23.43247776      -0.00010335       0.00003767      -0.00004269      -5.36303894
Si       7.70932089       8.93117377      24.25563798       0.00000862       0.00000180      -0.00002422      -5.35728403
Si       7.57227766       8.86367553      26.65192336      -0.00011399      -0.00002293      -0.00002406      -5.32592391
Si       7.69730655      11.16954483      27.48975985       0.00010742       0.00004006       0.00008493      -5.32592969
B        7.72716671      11.16795038       1.14576064      -0.00002812       0.00001823      -0.00016031      -6.56587861
Si       9.64836263       7.76744687      27.26933726       0.00004589       0.00006301      -0.00007342      -5.33211808
Si       9.67686040       7.80944759       1.16115105       0.00003510      -0.00001686       0.00006989      -5.29899131
Si       9.66767135      10.05563898      21.04480595       0.00000574       0.00003469      -0.00006936      -5.37720654
Si       9.65833397      10.06533030      23.45133805       0.00003544      -0.00003310      -0.00004469      -5.34387402
Si       9.66228747      12.31743485      24.26594742       0.00006824       0.00001140      -0.00001937      -5.36116856
Si       9.65033339      12.49855950      26.66160254       0.00005785       0.00009329      -0.00002840      -5.29532038
Si       0.14268429       0.11371036       1.77275153      -0.00001075       0.00003134       0.00000827      -5.32935876
Si       0.01105262       0.01711622       4.17181568      -0.00004326       0.00000099      -0.00003697      -5.34959526
Si      11.59482474       2.24020850       4.99405811      -0.00003813      -0.00007117      -0.00000537      -5.36992851
Si      11.60270380       2.23557620       7.39208063      -0.00000439      -0.00001729      -0.00000041      -5.37950406
Si      11.60554210       4.46769966       8.20680875       0.00000988      -0.00005293      -0.00007453      -5.38223740
Si      11.60568836       4.46722647      10.60022406      -0.00000356      -0.00003267      -0.00002086      -5.38128739
Si       1.93284297       1.11630572       8.20241052      -0.00005565      -0.00003361      -0.00001239      -5.38321841
Si       1.93377940       1.11646862      10.59785609       0.00001397      -0.00003054       0.00003168      -5.38052138
Si       1.90354937       3.16039686       1.77055863      -0.00006635      -0.00008944       0.00000418      -5.34122042
Si       1.92558145       3.32914373       4.17018733      -0.00006110      -0.00000787      -0.00002559      -5.35090969
Si       1.93990269       5.57545850       4.99426451       0.00007838      -0.00002158       0.00001267      -5.36432299
Si       1.93569386       5.58107719       7.39252356       0.00001246      -0.00000811       0.00003211      -5.38008566
Si       3.68682332       0.06724031       1.76830622      -0.00009786       0.00004801      -0.00002480      -5.35054411
Si       3.84536847       0.00133349       4.16826988      -0.00005979      -0.00001242       0.00003186      -5.35239554
Si       3.87088060       2.23307092       4.99520908      -0.00000791       0.00006170       0.00002660      -5.35756726
Si       3.86944792       2.23279830       7.39354354      -0.00004404      -0.00003682       0.00003252      -5.38073195
Si       3.86843716       4.46562365       8.21039914      -0.00000235       0.00002907       0.00002668      -5.38156818
Si       3.86853506       4.46634724      10.60244364      -0.00000550      -0.00003140      -0.00004527      -5.38188272
Si       5.80365079       1.11549520       8.20665005       0.00003475      -0.00006418      -0.00000448      -5.38097427
Si       5.80312050       1.11622128      10.60033008       0.00001243      -0.00002521      -0.00002277      -5.38126970
Si       5.97851722       3.44703532       1.81206247      -0.00000682       0.00006762      -0.00012200      -5.35154065
Si       5.82522016       3.36190228       4.19622244       0.00001315       0.00000291      -0.00000032      -5.35895683
Si       5.79518402       5.59068770       5.00387518      -0.00001162       0.00003185      -0.00000620      -5.36607085
Si       5.80083380       5.58534136       7.39814896       0.00003209       0.00000106      -0.00003085      -5.38141296
Si       7.75333379      13.21603956       1.76935917       0.00000483      -0.00008290       0.00000451      -5.33503335
Si       7.74453456      13.38118030       4.16926635      -0.00004399      -0.00003317      -0.00002477      -5.35064706
Si       7.74581877       2.22557949       4.99511970       0.00000271      -0.00001783      -0.00000125      -5.36380162
Si       7.73974118       2.23090690       7.39312116       0.00007865      -0.00000572       0.00000348      -5.38011351
Si       7.73834043       4.46673479       8.20254509       0.00005888      -0.00001226       0.00001273      -5.38324090
Si       7.73749171       4.46681787      10.59795924      -0.00000048      -0.00003315       0.00003015      -5.38052832
Si       9.67227521       1.11731848       8.21101441       0.00003705      -0.00000868      -0.00003445      -5.38294467
Si       9.67171723       1.11680122      10.60261235       0.00001504      -0.00004810      -0.00002183      -5.38195885
Si       9.52072923       3.44014955       1.73207035      -0.00013729       0.00001714       0.00008587      -5.33018198
Si       9.65862719       3.35787003       4.14555062      -0.00002918      -0.00000160       0.00001564      -5.34175189
Si       9.67618581       5.58396179       4.98518255      -0.00001140      -0.00004804       0.00000814      -5.36211553
Si       9.67314276       5.58390093       7.38738111       0.00000281      -0.00005004       0.00006255      -5.37863368
Si       0.18175244       6.76781009       1.76830622       0.00009786       0.00004801      -0.00002480      -5.35054411
Si       0.02320730       6.70190327       4.16826988       0.00005979      -0.00001242       0.00003186      -5.35239554
Si      11.60342246       8.93364070       4.99520908       0.00000791       0.00006170       0.00002660      -5.35756726
Si      11.60485514       8.93336807       7.39354354       0.00004404      -0.00003682       0.00003252      -5.38073195
Si       0.00013861      11.16619343       8.21039914       0.00000235       0.00002907       0.00002668      -5.38156818
Si       0.00004070      11.16691701      10.60244364       0.00000550      -0.00003140      -0.00004527      -5.38188272
Si       1.93573279       7.81687550       8.20241052       0.00005565      -0.00003361      -0.00001239      -5.38321841
Si       1.93479636       7.81703840      10.59785609      -0.00001397      -0.00003054       0.00003168      -5.38052138
Si       1.96502639       9.86096663       1.77055863       0.00006635      -0.00008944       0.00000418      -5.34122042
Si       1.94299431      10.02971351       4.17018733       0.00006110      -0.00000787      -0.00002559      -5.35090969
Si       1.92867307      12.27602828       4.99426451      -0.00007838      -0.00002158       0.00001267      -5.36432299
Si       1.93288191      12.28164697       7.39252356      -0.00001246      -0.00000811       0.00003211      -5.38008566
Si       3.72589148       6.81428013       1.77275153       0.00001075       0.00003134       0.00000827      -5.32935876
Si       3.85752314       6.71768600       4.17181568       0.00004326       0.00000099      -0.00003697      -5.34959526
Si       3.87947832       8.94077828       4.99405811       0.00003813      -0.00007117      -0.00000537      -5.36992851
Si       3.87159926       8.93614598       7.39208063       0.00000439      -0.00001729      -0.00000041      -5.37950406
Si       3.86876096      11.16826944       8.20680875      -0.00000988      -0.00005293      -0.00007453      -5.38223740
Si       3.86861470      11.16779625      10.60022406       0.00000356      -0.00003267      -0.00002086      -5.38128739
Si       5.80202785       7.81788826       8.21101441      -0.00003705      -0.00000868      -0.00003445      -5.38294467
Si       5.80258583       7.81737100      10.60261235      -0.00001504      -0.00004810      -0.00002183      -5.38195885
Si       5.95357383      10.14071933       1.73207035       0.00013729       0.00001714       0.00008587      -5.33018198
Si       5.81567587      10.05843981       4.14555062       0.00002918      -0.00000160       0.00001564      -5.34175189
Si       5.79811725      12.28453157       4.98518255       0.00001140      -0.00004804       0.00000814      -5.36211553
Si       5.80116030      12.28447071       7.38738111      -0.00000281      -0.00005004       0.00006255      -5.37863368
Si       7.72096927       6.51546978       1.76935917      -0.00000483      -0.00008290       0.00000451      -5.33503335
Si       7.72976850       6.68061052       4.16926635       0.00004399      -0.00003317      -0.00002477      -5.35064706
Si       7.72848429       8.92614927       4.99511970      -0.00000271      -0.00001783      -0.00000125      -5.36380162
Si       7.73456188       8.93147668       7.39312116      -0.00007865      -0.00000572       0.00000348      -5.38011351
Si       7.73596263      11.16730457       8.20254509      -0.00005888      -0.00001226       0.00001273      -5.38324090
Si       7.73681135      11.16738764      10.59795924       0.00000048      -0.00003315       0.00003015      -5.38052832
Si       9.67065227       7.81606498       8.20665005      -0.00003475      -0.00006418      -0.00000448      -5.38097427
Si       9.67118256       7.81679106      10.60033008      -0.00001243      -0.00002521      -0.00002277      -5.38126970
Si       9.49578584      10.14760510       1.81206247       0.00000682       0.00006762      -0.00012200      -5.35154065
Si       9.64908290      10.06247205       4.19622244      -0.00001315       0.00000291      -0.00000032      -5.35895683
Si       9.67911904      12.29125747       5.00387518       0.00001162       0.00003185      -0.00000620      -5.36607085
Si       9.67346926      12.28591114       7.39814896      -0.00003209       0.00000106      -0.00003085      -5.38141296
Si       0.00043471      13.40091782      11.41338919       0.00000032      -0.00004267      -0.00002864      -5.38111317
Si       0.00001569      13.40079525      13.80800733      -0.00001334      -0.00003564       0.00001443      -5.38140678
Si      11.60547360       2.23323571      14.61992478       0.00001288       0.00000533      -0.00001151      -5.38131410
Si      11.60511048       2.23284957      17.01442637       0.00000053       0.00007266      -0.00004873      -5.38144870
Si       0.00006727       4.46678341      17.82487345      -0.00000018       0.00004012      -0.00000963      -5.38227566
Si      11.60519412       4.46626080      20.21553622      -0.00000997       0.00004934      -0.00003658      -5.38680403
Si       1.93314637       1.11661661      17.82681318       0.00002148       0.00002174       0.00000845      -5.38147928
Si       1.93238496       1.11656627      20.21977661       0.00006843       0.00001517       0.00005336      -5.38156018
Si       1.93385360       3.34949684      11.41265714       0.00001839      -0.00003718       0.00005096      -5.38109801
Si       1.93414110       3.34989251      13.80762975       0.00001431       0.00000580       0.00003580      -5.38116321
Si       1.93445969       5.58347456      14.62023586      -0.00004332       0.00000570       0.00001712      -5.38116394
Si       1.93518522       5.58341618      17.01522737      -0.00005490       0.00000137      -0.00001591      -5.38107943
Si       3.86807549       0.00021965      11.41204956      -0.00000055      -0.00001394       0.00010655      -5.38110527
Si       3.86824917       0.00013541      13.80735739       0.00001224      -0.00000710       0.00002291      -5.38091746
Si       3.86852803       2.23357591      14.62053447      -0.00002718      -0.00004497       0.00003824      -5.38101766
Si       3.86829899       2.23413014      17.01597969      -0.00001517      -0.00001247      -0.00002122      -5.38078983
Si       3.86864835       4.46696240      17.83144459      -0.00000814       0.00000059       0.00000312      -5.37989829
Si       3.86785724       4.46763509      20.22873541       0.00001265       0.00001225       0.00007156      -5.37879493
Si       5.80365941       1.11839093      17.82706224      -0.00000992      -0.00001586      -0.00007680      -5.38134689
Si       5.80461098       1.12168626      20.22037777       0.00002925      -0.00006895       0.00001911      -5.38014033
Si       5.80363626       3.34989266      11.41277879       0.00000294       0.00000263      -0.00000838      -5.38085714
Si       5.80318699       3.34995509      13.80795339      -0.00004346      -0.00001944      -0.00000223      -5.38114070
Si       5.80268882       5.58331894      14.62090055       0.00002899      -0.00002115      -0.00001173      -5.38094359
Si       5.80228632       5.58288253      17.01616601       0.00003496       0.00000859      -0.00003959      -5.38162470
Si       7.73719810      13.40038468      11.41278646       0.00003209      -0.00004215       0.00002597      -5.38109903
Si       7.73745054      13.40076574      13.80773329       0.00000123      -0.00000604       0.00001061      -5.38116971
Si       7.73763721       2.23323603      14.62026617      -0.00001521       0.00000023      -0.00000599      -5.38116547
Si       7.73847232       2.23319257      17.01523169       0.00003205       0.00000408      -0.00005283      -5.38112561
Si       7.73723347       4.46685609      17.82700058       0.00003268       0.00000626      -0.00001746      -5.38146925
Si       7.73910366       4.46682879      20.21999831       0.00000921       0.00000210       0.00001997      -5.38153836
Si       9.67229872       1.11495498      17.82905443       0.00000714       0.00003082       0.00002241      -5.38096322
Si       9.67347102       1.11192249      20.22340353       0.00001086       0.00006281       0.00002814      -5.38537568
Si       9.67132198       3.35075861      11.41268838      -0.00001659      -0.00007550       0.00007166      -5.38133882
Si       9.67143652       3.35045912      13.80742762      -0.00000094      -0.00003559       0.00005643      -5.38119567
Si       9.67149107       5.58406289      14.61968750       0.00000931      -0.00002141       0.00001501      -5.38137064
Si       9.67121471       5.58462731      17.01440918       0.00004401      -0.00002029      -0.00003444      -5.38054125
Si       0.00050028       6.70078942      11.41204956       0.00000055      -0.00001394       0.00010655      -5.38110527
Si       0.00032660       6.70070519      13.80735739      -0.00001224      -0.00000710       0.00002291      -5.38091746
Si       0.00004774       8.93414568      14.62053447       0.00002718      -0.00004497       0.00003824      -5.38101766
Si       0.00027678       8.93469992      17.01597969       0.00001517      -0.00001247      -0.00002122      -5.38078983
Si      11.60565471      11.16753217      17.83144459       0.00000814       0.00000059       0.00000312      -5.37989829
Si       0.00071852      11.16820487      20.22873541      -0.00001265       0.00001225       0.00007156      -5.37879493
Si       1.93542940       7.81718639      17.82681318      -0.00002148       0.00002174       0.00000845      -5.38147928
Si       1.93619081       7.81713604      20.21977661      -0.00006843       0.00001517       0.00005336      -5.38156018
Si       1.93472216      10.05006661      11.41265714      -0.00001839      -0.00003718       0.00005096      -5.38109801
Si       1.93443467      10.05046229      13.80762975      -0.00001431       0.00000580       0.00003580      -5.38116321
Si       1.93411607      12.28404434      14.62023586       0.00004332       0.00000570       0.00001712      -5.38116394
Si       1.93339054      12.28398596      17.01522737       0.00005490       0.00000137      -0.00001591      -5.38107943
Si       3.86814105       6.70034805      11.41338919      -0.00000032      -0.00004267      -0.00002864      -5.38111317
Si       3.86856007       6.70022548      13.80800733       0.00001334      -0.00003564       0.00001443      -5.38140678
Si       3.86882946       8.93380549      14.61992478      -0.00001288       0.00000533      -0.00001151      -5.38131410
Si       3.86919258       8.93341935      17.01442637      -0.00000053       0.00007266      -0.00004873      -5.38144870
Si       3.86850850      11.16735319      17.82487345       0.00000018       0.00004012      -0.00000963      -5.38227566
Si       3.86910894      11.16683058      20.21553622       0.00000997       0.00004934      -0.00003658      -5.38680403
Si       5.80200434       7.81552476      17.82905443      -0.00000714       0.00003082       0.00002241      -5.38096322
Si       5.80083204       7.81249227      20.22340353      -0.00001086       0.00006281       0.00002814      -5.38537568
Si       5.80298108      10.05132839      11.41268838       0.00001659      -0.00007550       0.00007166      -5.38133882
Si       5.80286654      10.05102890      13.80742762       0.00000094      -0.00003559       0.00005643      -5.38119567
Si       5.80281199      12.28463266      14.61968750      -0.00000931      -0.00002141       0.00001501      -5.38137064
Si       5.80308835      12.28519708      17.01440918      -0.00004401      -0.00002029      -0.00003444      -5.38054125
Si       7.73710496       6.69981490      11.41278646      -0.00003209      -0.00004215       0.00002597      -5.38109903
Si       7.73685252       6.70019596      13.80773329      -0.00000123      -0.00000604       0.00001061      -5.38116971
Si       7.73666585       8.93380581      14.62026617       0.00001521       0.00000023      -0.00000599      -5.38116547
Si       7.73583074       8.93376235      17.01523169      -0.00003205       0.00000408      -0.00005283      -5.38112561
Si       7.73706959      11.16742587      17.82700058      -0.00003268       0.00000626      -0.00001746      -5.38146925
Si       7.73519940      11.16739857      20.21999831      -0.00000921       0.00000210       0.00001997      -5.38153836
Si       9.67064365       7.81896071      17.82706224       0.00000992      -0.00001586      -0.00007680      -5.38134689
Si       9.66969208       7.82225604      20.22037777      -0.00002925      -0.00006895       0.00001911      -5.38014033
Si       9.67066680      10.05046243      11.41277879      -0.00000294       0.00000263      -0.00000838      -5.38085714
Si       9.67111607      10.05052487      13.80795339       0.00004346      -0.00001944      -0.00000223      -5.38114070
Si       9.67161424      12.28388872      14.62090055      -0.00002899      -0.00002115      -0.00001173      -5.38094359
Si       9.67201674      12.28345231      17.01616601      -0.00003496       0.00000859      -0.00003959      -5.38162470
