216
Lattice="11.605727294873521 0.0 0.0 0.0 13.401139555673227 0.0 0.0 0.0 28.428109966331448" Properties=species:S:1:pos:R:3:forces:R:3 energy=-1165.603110650519 free_energy=-1165.603110650519 pbc="T T T"
Si       0.00000000       0.00000000      20.92624761      -0.00004240      -0.00007435       0.00003400
Si      11.60572729      13.40113956      23.29525678      -0.00005178      -0.00018709      -0.00002262
Si      11.60572729       2.23352326      24.08492650      -0.00000484      -0.00005114      -0.00004941
Si      11.60572729       2.23352326      26.45393566       0.00011110      -0.00003330       0.00004442
B       11.60572729       4.46704652      27.24360538      -0.00000792      -0.00010879      -0.00001837
Si       0.00000000       4.46704652       1.18450458       0.00006473      -0.00006216       0.00004713
Si       1.93428788       1.11676163      27.24360538      -0.00000004       0.00001001      -0.00008853
B        1.93428788       1.11676163       1.18450458       0.00006322       0.00001737      -0.00005767
Si       1.93428788       3.35028489      20.92624761      -0.00001552      -0.00013251       0.00005575
Si       1.93428788       3.35028489      23.29525678       0.00000357      -0.00007230       0.00001913
Si       1.93428788       5.58380815      24.08492650      -0.00003272      -0.00005358      -0.00005512
Si       1.93428788       5.58380815      26.45393566       0.00002889       0.00005526       0.00000228
Si       3.86857576      13.40113956      20.92624761       0.00004019      -0.00006601       0.00006444
Si       3.86857576      13.40113956      23.29525678      -0.00000197       0.00003448      -0.00004131
Si       3.86857576       2.23352326      24.08492650      -0.00006474      -0.00005847      -0.00001260
Si       3.86857576       2.23352326      26.45393566       0.00000402      -0.00005863      -0.00003046
Si       3.86857576       4.46704652      27.24360538       0.00002785       0.00009704      -0.00001384
Si       3.86857576       4.46704652       1.18450458      -0.00000834      -0.00002101       0.00006465
Si       5.80286365       1.11676163      27.24360538      -0.00003638      -0.00000406       0.00000697
Si       5.80286365       1.11676163       1.18450458      -0.00008334      -0.00001494       0.00008306
Si       5.80286365       3.35028489      20.92624761       0.00004810      -0.00003251       0.00012925
Si       5.80286365       3.35028489      23.29525678       0.00002175      -0.00003269      -0.00002963
Si       5.80286365       5.58380815      24.08492650      -0.00004885      -0.00001446      -0.00000619
Si       5.80286365       5.58380815      26.45393566       0.00008157      -0.00009968       0.00000621
Si       7.73715153      13.40113956      20.92624761       0.00002740       0.00001740       0.00011535
Si       7.73715153      13.40113956      23.29525678      -0.00005559      -0.00005640      -0.00009788
Si       7.73715153       2.23352326      24.08492650       0.00002843      -0.00002219      -0.00001309
Si       7.73715153       2.23352326      26.45393566      -0.00000324      -0.00002803      -0.00005197
Si       7.73715153       4.46704652      27.24360538       0.00001141       0.00001781      -0.00003266
B        7.73715153       4.46704652       1.18450458       0.00001303       0.00007953      -0.00001815
B        9.67143941       1.11676163      27.24360538      -0.00012898      -0.00001984       0.00004032
Si       9.67143941       1.11676163       1.18450458       0.00009250       0.00000538       0.00004493
Si       9.67143941       3.35028489      20.92624761      -0.00002455      -0.00003984       0.00010168
Si       9.67143941       3.35028489      23.29525678      -0.00009684      -0.00003477      -0.00005656
Si       9.67143941       5.58380815      24.08492650       0.00003751      -0.00006466      -0.00003688
Si       9.67143941       5.58380815      26.45393566      -0.00009116       0.00000745      -0.00005370
Si      11.60572729       6.70056978      20.92624761      -0.00004019      -0.00006601       0.00006444
Si      11.60572729       6.70056978      23.29525678       0.00000197       0.00003448      -0.00004131
Si      11.60572729       8.93409304      24.08492650       0.00006474      -0.00005847      -0.00001260
Si      11.60572729       8.93409304      26.45393566      -0.00000402      -0.00005863      -0.00003046
Si      11.60572729      11.16761630      27.24360538      -0.00002785       0.00009704      -0.00001384
Si       0.00000000      11.16761630       1.18450458       0.00000834      -0.00002101       0.00006465
Si       1.93428788       7.81733141      27.24360538       0.00000004       0.00001001      -0.00008853
B        1.93428788       7.81733141       1.18450458      -0.00006322       0.00001737      -0.00005767
Si       1.93428788      10.05085467      20.92624761       0.00001552      -0.00013251       0.00005575
Si       1.93428788      10.05085467      23.29525678      -0.00000357      -0.00007230       0.00001913
Si       1.93428788      12.28437793      24.08492650       0.00003272      -0.00005358      -0.00005512
Si       1.93428788      12.28437793      26.45393566      -0.00002889       0.00005526       0.00000228
Si       3.86857576       6.70056978      20.92624761       0.00004240      -0.00007435       0.00003400
Si       3.86857576       6.70056978      23.29525678       0.00005178      -0.00018709      -0.00002262
Si       3.86857576       8.93409304      24.08492650       0.00000484      -0.00005114      -0.00004941
Si       3.86857576       8.93409304      26.45393566      -0.00011110      -0.00003330       0.00004442
B        3.86857576      11.16761630      27.24360538       0.00000792      -0.00010879      -0.00001837
Si       3.86857576      11.16761630       1.18450458      -0.00006473      -0.00006216       0.00004713
B        5.80286365       7.81733141      27.24360538       0.00012898      -0.00001984       0.00004032
Si       5.80286365       7.81733141       1.18450458      -0.00009250       0.00000538       0.00004493
Si       5.80286365      10.05085467      20.92624761       0.00002455      -0.00003984       0.00010168
Si       5.80286365      10.05085467      23.29525678       0.00009684      -0.00003477      -0.00005656
Si       5.80286365      12.28437793      24.08492650      -0.00003751      -0.00006466      -0.00003688
Si       5.80286365      12.28437793      26.45393566       0.00009116       0.00000745      -0.00005370
Si       7.73715153       6.70056978      20.92624761      -0.00002740       0.00001740       0.00011535
Si       7.73715153       6.70056978      23.29525678       0.00005559      -0.00005640      -0.00009788
Si       7.73715153       8.93409304      24.08492650      -0.00002843      -0.00002219      -0.00001309
Si       7.73715153       8.93409304      26.45393566       0.00000324      -0.00002803      -0.00005197
Si       7.73715153      11.16761630      27.24360538      -0.00001141       0.00001781      -0.00003266
B        7.73715153      11.16761630       1.18450458      -0.00001303       0.00007953      -0.00001815
Si       9.67143941       7.81733141      27.24360538       0.00003638      -0.00000406       0.00000697
Si       9.67143941       7.81733141       1.18450458       0.00008334      -0.00001494       0.00008306
Si       9.67143941      10.05085467      20.92624761      -0.00004810      -0.00003251       0.00012925
Si       9.67143941      10.05085467      23.29525678      -0.00002175      -0.00003269      -0.00002963
Si       9.67143941      12.28437793      24.08492650       0.00004885      -0.00001446      -0.00000619
Si       9.67143941      12.28437793      26.45393566      -0.00008157      -0.00009968       0.00000621
Si      11.60572729      13.40113956       1.97417430      -0.00004693       0.00007405       0.00003543
Si      11.60572729      13.40113956       4.34318347      -0.00004177       0.00006761       0.00004648
Si      11.60572729       2.23352326       5.13285319       0.00005004       0.00004694       0.00008498
Si      11.60572729       2.23352326       7.50186235      -0.00003289      -0.00002095      -0.00008762
Si      11.60572729       4.46704652       8.29153207       0.00004112       0.00004792      -0.00001024
Si       0.00000000       4.46704652      10.66054124      -0.00002370       0.00001032      -0.00001823
Si       1.93428788       1.11676163       8.29153207      -0.00000126       0.00012938       0.00005118
Si       1.93428788       1.11676163      10.66054124      -0.00002083      -0.00001008      -0.00003475
Si       1.93428788       3.35028489       1.97417430       0.00001013       0.00010272       0.00003667
Si       1.93428788       3.35028489       4.34318347       0.00002650       0.00004857       0.00003964
Si       1.93428788       5.58380815       5.13285319       0.00001907      -0.00002451       0.00012809
Si       1.93428788       5.58380815       7.50186235       0.00003556       0.00003189      -0.00008928
Si       3.86857576      13.40113956       1.97417430       0.00004234       0.00005316       0.00000845
Si       3.86857576      13.40113956       4.34318347       0.00000714       0.00007206       0.00003161
Si       3.86857576       2.23352326       5.13285319       0.00000577       0.00007582       0.00009174
Si       3.86857576       2.23352326       7.50186235      -0.00004643       0.00005443      -0.00006299
Si       3.86857576       4.46704652       8.29153207      -0.00009455       0.00005659       0.00000492
Si       3.86857576       4.46704652      10.66054124       0.00003519       0.00000696      -0.00004510
Si       5.80286365       1.11676163       8.29153207      -0.00003531       0.00005594       0.00004602
Si       5.80286365       1.11676163      10.66054124       0.00003438       0.00007616       0.00003739
Si       5.80286365       3.35028489       1.97417430      -0.00012434       0.00001989       0.00001277
Si       5.80286365       3.35028489       4.34318347       0.00001429       0.00004269       0.00009869
Si       5.80286365       5.58380815       5.13285319      -0.00012335       0.00004594      -0.00003706
Si       5.80286365       5.58380815       7.50186235      -0.00001182       0.00010895      -0.00001379
Si       7.73715153      13.40113956       1.97417430      -0.00008292      -0.00001096      -0.00002896
Si       7.73715153      13.40113956       4.34318347       0.00001364       0.00005553       0.00000885
Si       7.73715153       2.23352326       5.13285319      -0.00001004       0.00006666      -0.00002921
Si       7.73715153       2.23352326       7.50186235       0.00000753       0.00007962      -0.00006518
Si       7.73715153       4.46704652       8.29153207      -0.00002772      -0.00002140       0.00003513
Si       7.73715153       4.46704652      10.66054124      -0.00001955       0.00007022      -0.00001262
Si       9.67143941       1.11676163       8.29153207       0.00009274       0.00006733       0.00004119
Si       9.67143941       1.11676163      10.66054124      -0.00003604       0.00004724      -0.00006463
Si       9.67143941       3.35028489       1.97417430       0.00008800      -0.00002628      -0.00006408
Si       9.67143941       3.35028489       4.34318347      -0.00006090       0.00000006       0.00001008
Si       9.67143941       5.58380815       5.13285319       0.00003732       0.00006179      -0.00004474
Si       9.67143941       5.58380815       7.50186235      -0.00001244       0.00005217      -0.00009206
Si      11.60572729       6.70056978       1.97417430      -0.00004234       0.00005316       0.00000845
Si      11.60572729       6.70056978       4.34318347      -0.00000714       0.00007206       0.00003161
Si      11.60572729       8.93409304       5.13285319      -0.00000577       0.00007582       0.00009174
Si      11.60572729       8.93409304       7.50186235       0.00004643       0.00005443      -0.00006299
Si      11.60572729      11.16761630       8.29153207       0.00009455       0.00005659       0.00000492
Si       0.00000000      11.16761630      10.66054124      -0.00003519       0.00000696      -0.00004510
Si       1.93428788       7.81733141       8.29153207       0.00000126       0.00012938       0.00005118
Si       1.93428788       7.81733141      10.66054124       0.00002083      -0.00001008      -0.00003475
Si       1.93428788      10.05085467       1.97417430      -0.00001013       0.00010272       0.00003667
Si       1.93428788      10.05085467       4.34318347      -0.00002650       0.00004857       0.00003964
Si       1.93428788      12.28437793       5.13285319      -0.00001907      -0.00002451       0.00012809
Si       1.93428788      12.28437793       7.50186235      -0.00003556       0.00003189      -0.00008928
Si       3.86857576       6.70056978       1.97417430       0.00004693       0.00007405       0.00003543
Si       3.86857576       6.70056978       4.34318347       0.00004177       0.00006761       0.00004648
Si       3.86857576       8.93409304       5.13285319      -0.00005004       0.00004694       0.00008498
Si       3.86857576       8.93409304       7.50186235       0.00003289      -0.00002095      -0.00008762
Si       3.86857576      11.16761630       8.29153207      -0.00004112       0.00004792      -0.00001024
Si       3.86857576      11.16761630      10.66054124       0.00002370       0.00001032      -0.00001823
Si       5.80286365       7.81733141       8.29153207      -0.00009274       0.00006733       0.00004119
Si       5.80286365       7.81733141      10.66054124       0.00003604       0.00004724      -0.00006463
Si       5.80286365      10.05085467       1.97417430      -0.00008800      -0.00002628      -0.00006408
Si       5.80286365      10.05085467       4.34318347       0.00006090       0.00000006       0.00001008
Si       5.80286365      12.28437793       5.13285319      -0.00003732       0.00006179      -0.00004474
Si       5.80286365      12.28437793       7.50186235       0.00001244       0.00005217      -0.00009206
Si       7.73715153       6.70056978       1.97417430       0.00008292      -0.00001096      -0.00002896
Si       7.73715153       6.70056978       4.34318347      -0.00001364       0.00005553       0.00000885
Si       7.73715153       8.93409304       5.13285319       0.00001004       0.00006666      -0.00002921
Si       7.73715153       8.93409304       7.50186235      -0.00000753       0.00007962      -0.00006518
Si       7.73715153      11.16761630       8.29153207       0.00002772      -0.00002140       0.00003513
Si       7.73715153      11.16761630      10.66054124       0.00001955       0.00007022      -0.00001262
Si       9.67143941       7.81733141       8.29153207       0.00003531       0.00005594       0.00004602
Si       9.67143941       7.81733141      10.66054124      -0.00003438       0.00007616       0.00003739
Si       9.67143941      10.05085467       1.97417430       0.00012434       0.00001989       0.00001277
Si       9.67143941      10.05085467       4.34318347      -0.00001429       0.00004269       0.00009869
Si       9.67143941      12.28437793       5.13285319       0.00012335       0.00004594      -0.00003706
Si       9.67143941      12.28437793       7.50186235       0.00001182       0.00010895      -0.00001379
Si      11.60572729      13.40113956      11.45021096      -0.00003565       0.00007067       0.00002179
Si      11.60572729      13.40113956      13.81922012       0.00001764      -0.00000895       0.00005912
Si      11.60572729       2.23352326      14.60888984      -0.00003207      -0.00002086      -0.00014165
Si      11.60572729       2.23352326      16.97789901       0.00001137      -0.00003826      -0.00004188
Si      11.60572729       4.46704652      17.76756873      -0.00002360      -0.00002864       0.00000489
Si       0.00000000       4.46704652      20.13657789      -0.00009191       0.00000719      -0.00005321
Si       1.93428788       1.11676163      17.76756873       0.00000370      -0.00008558      -0.00005203
Si       1.93428788       1.11676163      20.13657789       0.00000126      -0.00011141      -0.00008232
Si       1.93428788       3.35028489      11.45021096       0.00000449       0.00008358      -0.00007457
Si       1.93428788       3.35028489      13.81922012      -0.00001181      -0.00000734      -0.00001910
Si       1.93428788       5.58380815      14.60888984       0.00000641      -0.00001756      -0.00003232
Si       1.93428788       5.58380815      16.97789901      -0.00004206      -0.00003993      -0.00002026
Si       3.86857576      13.40113956      11.45021096       0.00005114       0.00003853      -0.00003789
Si       3.86857576      13.40113956      13.81922012      -0.00000423      -0.00004327       0.00009090
Si       3.86857576       2.23352326      14.60888984       0.00003015       0.00001616      -0.00005927
Si       3.86857576       2.23352326      16.97789901      -0.00002719      -0.00002911      -0.00004447
Si       3.86857576       4.46704652      17.76756873       0.00001622      -0.00006204      -0.00003176
Si       3.86857576       4.46704652      20.13657789       0.00003925      -0.00008480      -0.00000577
Si       5.80286365       1.11676163      17.76756873       0.00001574       0.00002056       0.00005820
Si       5.80286365       1.11676163      20.13657789       0.00003204      -0.00002266       0.00002229
Si       5.80286365       3.35028489      11.45021096       0.00004215      -0.00001017      -0.00002055
Si       5.80286365       3.35028489      13.81922012      -0.00001486       0.00000813      -0.00005338
Si       5.80286365       5.58380815      14.60888984       0.00005338       0.00000948       0.00004415
Si       5.80286365       5.58380815      16.97789901      -0.00000895       0.00000871       0.00007310
Si       7.73715153      13.40113956      11.45021096      -0.00001933      -0.00001668       0.00003343
Si       7.73715153      13.40113956      13.81922012      -0.00002241       0.00003309       0.00008046
Si       7.73715153       2.23352326      14.60888984       0.00001281       0.00003341      -0.00002177
Si       7.73715153       2.23352326      16.97789901       0.00001949      -0.00001604       0.00003841
Si       7.73715153       4.46704652      17.76756873       0.00000131       0.00001883       0.00009032
Si       7.73715153       4.46704652      20.13657789      -0.00005878      -0.00001158       0.00000635
Si       9.67143941       1.11676163      17.76756873      -0.00001483      -0.00004577       0.00005650
Si       9.67143941       1.11676163      20.13657789      -0.00011061      -0.00012886      -0.00009572
Si       9.67143941       3.35028489      11.45021096      -0.00005676       0.00000748      -0.00003156
Si       9.67143941       3.35028489      13.81922012       0.00004031       0.00004167       0.00002566
Si       9.67143941       5.58380815      14.60888984      -0.00005018      -0.00002900       0.00004584
Si       9.67143941       5.58380815      16.97789901       0.00003796      -0.00005173       0.00004635
Si      11.60572729       6.70056978      11.45021096      -0.00005114       0.00003853      -0.00003789
Si      11.60572729       6.70056978      13.81922012       0.00000423      -0.00004327       0.00009090
Si      11.60572729       8.93409304      14.60888984      -0.00003015       0.00001616      -0.00005927
Si      11.60572729       8.93409304      16.97789901       0.00002719      -0.00002911      -0.00004447
Si      11.60572729      11.16761630      17.76756873      -0.00001622      -0.00006204      -0.00003176
Si       0.00000000      11.16761630      20.13657789      -0.00003925      -0.00008480      -0.00000577
Si       1.93428788       7.81733141      17.76756873      -0.00000370      -0.00008558      -0.00005203
Si       1.93428788       7.81733141      20.13657789      -0.00000126      -0.00011141      -0.00008232
Si       1.93428788      10.05085467      11.45021096      -0.00000449       0.00008358      -0.00007457
Si       1.93428788      10.05085467      13.81922012       0.00001181      -0.00000734      -0.00001910
Si       1.93428788      12.28437793      14.60888984      -0.00000641      -0.00001756      -0.00003232
Si       1.93428788      12.28437793      16.97789901       0.00004206      -0.00003993      -0.00002026
Si       3.86857576       6.70056978      11.45021096       0.00003565       0.00007067       0.00002179
Si       3.86857576       6.70056978      13.81922012      -0.00001764      -0.00000895       0.00005912
Si       3.86857576       8.93409304      14.60888984       0.00003207      -0.00002086      -0.00014165
Si       3.86857576       8.93409304      16.97789901      -0.00001137      -0.00003826      -0.00004188
Si       3.86857576      11.16761630      17.76756873       0.00002360      -0.00002864       0.00000489
Si       3.86857576      11.16761630      20.13657789       0.00009191       0.00000719      -0.00005321
Si       5.80286365       7.81733141      17.76756873       0.00001483      -0.00004577       0.00005650
Si       5.80286365       7.81733141      20.13657789       0.00011061      -0.00012886      -0.00009572
Si       5.80286365      10.05085467      11.45021096       0.00005676       0.00000748      -0.00003156
Si       5.80286365      10.05085467      13.81922012      -0.00004031       0.00004167       0.00002566
Si       5.80286365      12.28437793      14.60888984       0.00005018      -0.00002900       0.00004584
Si       5.80286365      12.28437793      16.97789901      -0.00003796      -0.00005173       0.00004635
Si       7.73715153       6.70056978      11.45021096       0.00001933      -0.00001668       0.00003343
Si       7.73715153       6.70056978      13.81922012       0.00002241       0.00003309       0.00008046
Si       7.73715153       8.93409304      14.60888984      -0.00001281       0.00003341      -0.00002177
Si       7.73715153       8.93409304      16.97789901      -0.00001949      -0.00001604       0.00003841
Si       7.73715153      11.16761630      17.76756873      -0.00000131       0.00001883       0.00009032
Si       7.73715153      11.16761630      20.13657789       0.00005878      -0.00001158       0.00000635
Si       9.67143941       7.81733141      17.76756873      -0.00001574       0.00002056       0.00005820
Si       9.67143941       7.81733141      20.13657789      -0.00003204      -0.00002266       0.00002229
Si       9.67143941      10.05085467      11.45021096      -0.00004215      -0.00001017      -0.00002055
Si       9.67143941      10.05085467      13.81922012       0.00001486       0.00000813      -0.00005338
Si       9.67143941      12.28437793      14.60888984      -0.00005338       0.00000948       0.00004415
Si       9.67143941      12.28437793      16.97789901       0.00000895       0.00000871       0.00007310
