216
Lattice="11.605727294873521 0.0 0.0 0.0 13.401139555673227 0.0 0.0 0.0 28.428109966331448" Properties=species:S:1:pos:R:3:forces:R:3:energies:R:1 energy=-1164.3598788755983 stress="0.007132390452901973 5.845031936377508e-05 -4.306759486309586e-05 5.845031936377508e-05 0.007267372577932942 2.095595688091413e-05 -4.306759486309586e-05 2.095595688091413e-05 0.007500308139334393" free_energy=-1164.3598788755983 pbc="T T T"
Si      11.60326114      13.39516487      20.96466805       0.00001211       0.00001149      -0.00002466      -5.38767335
Si      11.60146808      13.38871671      23.33584803       0.00002058      -0.00004094       0.00009496      -5.37707607
Si      11.60323045       2.23494722      24.10639683      -0.00001261      -0.00000777      -0.00003098      -5.38551855
Si      11.59575337       2.24329733      26.46597889      -0.00000139      -0.00004589      -0.00005501      -5.37760499
Si      11.59072348       4.50833819      27.21853483       0.00000613      -0.00001930      -0.00009973      -5.33404280
Si      11.60141989       4.49369131       1.14431374       0.00000219      -0.00002150       0.00005856      -5.40324831
Si       1.96298231       1.14324502      27.22991625       0.00003684      -0.00000356      -0.00007729      -5.36570878
Si       1.95316304       1.13154874       1.16161320       0.00005249       0.00000040       0.00002940      -5.38468321
Si       1.93496992       3.35260555      20.96133397       0.00006802       0.00000564      -0.00006287      -5.38328714
Si       1.93951694       3.35992192      23.33136895      -0.00002173      -0.00002809      -0.00002266      -5.37390701
Si       1.94761480       5.59775262      24.12324458       0.00004263       0.00001641      -0.00001067      -5.37984678
Si       2.00125148       5.60680539      26.47661323       0.00003697      -0.00004023      -0.00004449      -5.35423143
Si       3.87013226       0.00293006      20.96727447       0.00003203       0.00001086      -0.00003275      -5.38881989
Si       3.87294632       0.00526490      23.33778765       0.00004573      -0.00000769      -0.00001886      -5.37624966
Si       3.88188184       2.25568894      24.12164745       0.00001377       0.00003100      -0.00000560      -5.38425806
Si       3.91680741       2.32653925      26.47667798       0.00007489       0.00000048      -0.00000861      -5.31708102
Si       4.10809400       4.67981586      27.17142531      -0.00007010       0.00001421       0.00000140      -5.33995879
Si       3.94029966       4.55735468       1.09940737       0.00000994      -0.00004410       0.00003943      -5.34988543
Si       5.81174863       1.10266613      27.22697059      -0.00002387       0.00001295      -0.00005900      -5.36442524
Si       5.80661663       1.10223189       1.15416981       0.00000927       0.00003782       0.00002694      -5.38807480
Si       5.80311093       3.37553184      21.00747018      -0.00004490       0.00002662      -0.00005290      -5.37041768
Si       5.80404076       3.43258874      23.40491395       0.00004157       0.00004002      -0.00000602      -5.31950753
Si       5.81261545       5.65876862      24.42833439       0.00000253       0.00000252      -0.00011769      -5.35494303
B        5.84098952       5.83619639      26.57493729      -0.00001636       0.00004384      -0.00007110      -6.28440051
Si       7.73425310       0.00280124      20.96957247       0.00004481      -0.00002875       0.00001254      -5.38668675
Si       7.73108082       0.00121293      23.34034131      -0.00006604       0.00004528      -0.00004699      -5.37344197
Si       7.72353524       2.25231661      24.12145549      -0.00002059      -0.00001016      -0.00001039      -5.38664900
Si       7.69829170       2.31380757      26.47394586      -0.00004697      -0.00001002      -0.00006791      -5.32339356
Si       7.52764731       4.66062924      27.17472117       0.00006216      -0.00001730       0.00002562      -5.36700843
Si       7.67898799       4.54962989       1.10174705      -0.00003902       0.00000629       0.00002381      -5.35911142
Si       9.63165447       1.10893988      27.22566685      -0.00000907       0.00002874      -0.00004597      -5.35236857
Si       9.65123097       1.11720724       1.15653334       0.00000188      -0.00003012       0.00000938      -5.38602530
Si       9.66813694       3.35413393      20.96277783       0.00004759      -0.00003280      -0.00002212      -5.38398968
Si       9.66217475       3.36034785      23.33234511       0.00003462      -0.00004442      -0.00003813      -5.37507360
Si       9.64807739       5.59937822      24.13099326      -0.00001078       0.00002006      -0.00002173      -5.38640267
Si       9.57823072       5.64469731      26.47819206       0.00006082      -0.00002102      -0.00001002      -5.34757058
Si      11.60344825       6.70035387      20.97053378       0.00005021       0.00003173       0.00003599      -5.38461915
Si      11.59927819       6.70301592      23.34100988       0.00001179      -0.00002483      -0.00000974      -5.37361501
Si      11.59256045       8.93069823      24.13590687      -0.00002112       0.00006743       0.00003027      -5.39729274
Si      11.54825492       8.91310184      26.48744454      -0.00002840       0.00006267      -0.00004196      -5.29963101
Si      11.59338339      11.15514766      27.23691164      -0.00002303       0.00003868      -0.00004359      -5.39288507
Si      11.60087920      11.16219422       1.16519968      -0.00005933       0.00002447       0.00008045      -5.37642753
Si       2.00129027       7.83612935      27.22802901       0.00001332      -0.00007555      -0.00001770      -5.33416288
Si       2.00259547       7.81398521       1.14275226       0.00002704       0.00000477       0.00005901      -5.35685546
Si       1.93996701      10.04239517      20.98938612      -0.00001894      -0.00002981       0.00008904      -5.38658447
Si       1.95455739      10.02681647      23.37211919      -0.00002824       0.00002692       0.00004724      -5.36277194
Si       1.94056422      12.27417576      24.11960845      -0.00000360      -0.00000030       0.00005430      -5.40619540
Si       1.96006818      12.26033963      26.47801773      -0.00003481       0.00000709      -0.00005140      -5.35871600
Si       3.88055328       6.69792796      21.00991191       0.00000545      -0.00005731      -0.00000872      -5.36864449
Si       3.91513768       6.69606545      23.40765446       0.00008613      -0.00001037      -0.00002584      -5.35988856
Si       3.91287772       8.90635940      24.21223089       0.00001649      -0.00005889       0.00001477      -5.35961996
Si       4.15122483       8.75831570      26.59193409       0.00000987      -0.00002063      -0.00001940      -5.30127299
Si       3.91382697      11.06793774      27.23507676       0.00000008       0.00002160      -0.00000508      -5.35558033
Si       3.91722338      11.08904099       1.15118393       0.00005675      -0.00004411       0.00004429      -5.35998298
B        5.94467939       7.73266040      27.30475875      -0.00001248      -0.00002606       0.00003416      -6.14265316
B        5.84190238       7.79142112       0.88770482       0.00000468       0.00003772       0.00001467      -6.30069570
Si       5.81110114      10.04267117      21.01353196       0.00004094      -0.00007603       0.00004397      -5.37006315
Si       5.83063133      10.01368478      23.41201340       0.00006481      -0.00004056      -0.00008907      -5.35826315
Si       5.80268368      12.26787323      24.12700937       0.00000037      -0.00003331       0.00002449      -5.39056562
Si       5.83221821      12.20697525      26.48003277       0.00007546      -0.00000154      -0.00003526      -5.35374801
Si       7.72495902       6.70852131      21.03599194      -0.00004508       0.00002096       0.00003787      -5.35336976
Si       7.69575142       6.72558016      23.45188594      -0.00004698       0.00003621      -0.00005317      -5.34311131
Si       7.67930296       8.88758906      24.43293431      -0.00003602      -0.00001584      -0.00006931      -5.35611787
B        7.53971205       8.77186951      26.57937245      -0.00001936      -0.00000687      -0.00002128      -6.27752360
Si       7.67886089      10.85005785      27.17925297      -0.00003789       0.00009327      -0.00000542      -5.34537746
Si       7.69620115      11.05480206       1.10755057       0.00000012      -0.00001029       0.00001181      -5.34429460
Si       9.40857631       7.90517615      27.17961277       0.00000868      -0.00004390       0.00001006      -5.36558018
Si       9.58022979       7.82406119       1.10628570      -0.00000819       0.00001168       0.00002219      -5.35044236
Si       9.65337866      10.03746423      21.01604295      -0.00002228       0.00003988       0.00004978      -5.37150649
Si       9.60824366      10.00612516      23.41575064       0.00001766      -0.00001443       0.00006036      -5.31750887
Si       9.65768949      12.26220361      24.12697687      -0.00001139      -0.00000469       0.00002736      -5.38757163
Si       9.60313639      12.20591247      26.48215174       0.00000608      -0.00004813       0.00002195      -5.31277330
Si       0.00033948       0.01083511       1.93829985      -0.00002066       0.00004584      -0.00000783      -5.37643838
Si       0.00118127       0.00606190       4.30763656      -0.00001278       0.00000740      -0.00005553      -5.38505306
Si       0.00227554       2.25089912       5.08103555       0.00004709      -0.00001450       0.00003545      -5.37622227
Si       0.00135445       2.24028063       7.46042934      -0.00001578      -0.00001292      -0.00010195      -5.38467271
Si       0.00173058       4.47692044       8.24794600       0.00002327      -0.00008623      -0.00008346      -5.38014587
Si       0.00076189       4.47029552      10.63275297       0.00000813      -0.00008948      -0.00008319      -5.38175148
Si       1.93430778       1.11880321       8.26308943       0.00002614       0.00000521      -0.00001176      -5.38193976
Si       1.93468492       1.11725190      10.64243532       0.00002076       0.00001559      -0.00003550      -5.38356739
Si       1.97199450       3.39987148       1.90458531       0.00004243       0.00000523      -0.00005529      -5.34319238
Si       1.94726663       3.36783754       4.28046215       0.00008193      -0.00002197      -0.00005868      -5.38913342
Si       1.95965889       5.60996671       5.04913759       0.00000913       0.00001782      -0.00007259      -5.36429568
Si       1.94194242       5.59134818       7.44162810      -0.00001285      -0.00003370      -0.00006838      -5.37989448
Si       3.88221750      13.36212385       1.93359451       0.00000023       0.00003866       0.00004347      -5.36263474
Si       3.87434668      13.38627370       4.30091900       0.00003148       0.00001229      -0.00003528      -5.38747346
Si       3.87199238       2.23096376       5.08478883       0.00007808       0.00002175       0.00000592      -5.37761643
Si       3.87004298       2.23198542       7.46174397       0.00005524      -0.00000692      -0.00004077      -5.38533096
Si       3.87041840       4.46922999       8.25311543       0.00005399      -0.00000119      -0.00002551      -5.38354346
Si       3.86937410       4.46796716      10.63531622       0.00004001      -0.00001579      -0.00003001      -5.38283096
Si       5.80382414       1.10845769       8.25644652       0.00003758       0.00003867       0.00004375      -5.37999842
Si       5.80344898       1.11452622      10.63874596      -0.00001080       0.00007348      -0.00005162      -5.38291573
Si       5.80645399       3.36623393       1.91580746       0.00001322      -0.00001404       0.00003579      -5.37804118
Si       5.80502181       3.35428863       4.28901455      -0.00002267       0.00004237       0.00005196      -5.38407782
Si       5.80432729       5.59555728       5.06315728       0.00001379      -0.00001291      -0.00002109      -5.38417058
Si       5.80375857       5.58565920       7.44837965       0.00002434       0.00001827      -0.00003436      -5.38364496
Si       7.72613368      13.33849531       1.91505599      -0.00008111      -0.00000428      -0.00001257      -5.34666835
Si       7.73423388      13.37916138       4.28982709      -0.00005363      -0.00000604       0.00001034      -5.38557748
Si       7.73627898       2.22486503       5.08175589      -0.00005659       0.00009176      -0.00005376      -5.37641247
Si       7.73760417       2.23030521       7.46001199      -0.00002791       0.00002628      -0.00004573      -5.38500266
Si       7.73676500       4.46782237       8.25315229      -0.00000366      -0.00001255       0.00002442      -5.38319009
Si       7.73741242       4.46773572      10.63553965      -0.00000042      -0.00001102      -0.00006274      -5.38291833
Si       9.67349461       1.11854633       8.26240199       0.00008600      -0.00003050       0.00006472      -5.38206387
Si       9.67226073       1.11747009      10.64211128       0.00000184      -0.00000087      -0.00003513      -5.38349987
Si       9.63628060       3.38637569       1.90598092      -0.00000040       0.00000641      -0.00004892      -5.34415018
Si       9.66134885       3.36264857       4.28165504      -0.00006915       0.00000518      -0.00001399      -5.38913484
Si       9.64852343       5.60507311       5.05475405       0.00001297       0.00002965      -0.00007063      -5.36658162
Si       9.66628775       5.58978748       7.44456199      -0.00000966      -0.00004631      -0.00008227      -5.38108057
Si      11.59327111       6.73345824       1.90463727      -0.00008589      -0.00003019       0.00002444      -5.33422075
Si      11.60344389       6.71167169       4.27817522      -0.00002098      -0.00002426       0.00000656      -5.38798279
Si       0.00069166       8.93491548       5.09279607      -0.00005120       0.00000231      -0.00000344      -5.37989313
Si       0.00092549       8.93372666       7.46807520      -0.00004800      -0.00009710      -0.00000157      -5.38342117
Si       0.00070521      11.16649462       8.26957798       0.00003259      -0.00002289       0.00005809      -5.38201251
Si       0.00047884      11.16620848      10.64764250      -0.00001786      -0.00001127      -0.00000379      -5.38362946
Si       1.93818201       7.81768106       8.25907936      -0.00003316       0.00002472       0.00001454      -5.38438570
Si       1.93587192       7.81664940      10.64023744      -0.00002256      -0.00000518      -0.00000931      -5.38274859
Si       1.94827764      10.03985202       1.93292978      -0.00007602       0.00001913       0.00000984      -5.37660282
Si       1.94205357      10.04545587       4.30204220      -0.00000956      -0.00002235       0.00003268      -5.37821669
Si       1.93579506      12.28111409       5.09775935       0.00004507      -0.00005894       0.00011340      -5.37942656
Si       1.93538025      12.28298903       7.47227095      -0.00000442       0.00001556      -0.00002363      -5.38409519
Si       4.10704670       6.83327834       1.76488538      -0.00008820      -0.00002347       0.00001117      -5.34354059
Si       3.91133926       6.72488717       4.20048651       0.00005428       0.00000115       0.00004400      -5.32618837
Si       3.88294586       8.92343454       5.07134964      -0.00001777      -0.00003469       0.00006987      -5.38012429
Si       3.87328026       8.93041255       7.45573046      -0.00000180       0.00000705      -0.00002154      -5.38263275
Si       3.87072617      11.16219250       8.26291834       0.00002090      -0.00004115       0.00007348      -5.38352453
Si       3.86986724      11.16553830      10.64348601      -0.00003614       0.00002106       0.00003049      -5.38301660
Si       5.80409739       7.81451048       8.25656558       0.00002386      -0.00002740       0.00011338      -5.39152158
Si       5.80361503       7.81636968      10.63812387       0.00002609       0.00002492       0.00004198      -5.38272835
Si       5.81362241       9.76714004       1.77449269       0.00000624       0.00010814       0.00003463      -5.34668047
Si       5.80544168       9.99557917       4.20879521       0.00001538      -0.00002285       0.00001708      -5.32454611
Si       5.80454274      12.24071765       5.06347801       0.00000378      -0.00000948       0.00001872      -5.36545953
Si       5.80420426      12.27100425       7.45242922      -0.00002402       0.00012599      -0.00001775      -5.38013466
Si       7.53008807       6.82127566       1.77830788       0.00006937      -0.00002507       0.00003531      -5.37189646
Si       7.70101440       6.72128928       4.20982221      -0.00007638       0.00006259       0.00007872      -5.32934507
Si       7.72634713       8.92199604       5.07165541       0.00003615      -0.00004026       0.00006007      -5.38524394
Si       7.73494046       8.93028772       7.45545218      -0.00001367       0.00002696      -0.00003770      -5.38293108
Si       7.73721073      11.16201636       8.26271184       0.00011272      -0.00007925       0.00008904      -5.38387026
Si       7.73718060      11.16575762      10.64335678       0.00001712       0.00002087       0.00002605      -5.38302295
Si       9.66951918       7.81728206       8.25958710      -0.00002717       0.00000698       0.00000529      -5.38424583
Si       9.67097373       7.81669759      10.64064935      -0.00001348      -0.00000757      -0.00004902      -5.38291306
Si       9.65084096      10.03176768       1.92841112       0.00000898       0.00000119       0.00008514      -5.38401843
Si       9.66481306      10.04337644       4.30056527      -0.00004686       0.00001643       0.00001802      -5.37920615
Si       9.67180877      12.27936246       5.09615227       0.00005772      -0.00009046       0.00008707      -5.38001993
Si       9.67202605      12.28296294       7.47122970      -0.00005533       0.00006182      -0.00004171      -5.38402901
Si       0.00045884      13.40112616      11.44355839      -0.00004306      -0.00001365      -0.00005374      -5.38279163
Si       0.00004013      13.39970525      13.82338378      -0.00004447      -0.00002410       0.00002879      -5.38298970
Si      11.60569127       2.23415270      14.61685873      -0.00000931       0.00001480      -0.00003333      -5.38391401
Si      11.60523410       2.23338156      16.99511554      -0.00005504      -0.00000194       0.00003705      -5.38209700
Si      11.60521491       4.46764746      17.79336002       0.00006811      -0.00001742      -0.00002169      -5.38416074
Si      11.60467989       4.46819428      20.16841859      -0.00000685       0.00003754      -0.00000840      -5.38030430
Si       1.93378820       1.11577012      17.79409660       0.00005554      -0.00000134      -0.00007087      -5.38492562
Si       1.93303607       1.11530084      20.16956562      -0.00002706       0.00001271       0.00002178      -5.38019852
Si       1.93445015       3.35255668      11.43667947       0.00000284       0.00000308      -0.00004876      -5.38315439
Si       1.93469874       3.35136254      13.81779003      -0.00000705      -0.00000784      -0.00006031      -5.38257620
Si       1.93507048       5.58419790      14.62018893       0.00003413      -0.00000644      -0.00000045      -5.38333610
Si       1.93589296       5.58421619      17.00056171      -0.00000058       0.00002599       0.00002295      -5.38273564
Si       3.86924138      13.40007592      11.44217035      -0.00000434       0.00002162       0.00009495      -5.38268574
Si       3.86880673      13.40054112      13.82347575      -0.00002463       0.00000600       0.00000284      -5.38272363
Si       3.86887157       2.23475612      14.61987636       0.00000126      -0.00003821      -0.00003002      -5.38328114
Si       3.86876511       2.23647891      17.00041054      -0.00002912      -0.00004915       0.00002552      -5.38244460
Si       3.87002790       4.46978860      17.80471520       0.00007731      -0.00003198      -0.00003667      -5.38218745
Si       3.87230594       4.47450343      20.18559633      -0.00006101       0.00002153      -0.00002709      -5.38394695
Si       5.80292002       1.12303062      17.80430252      -0.00003849      -0.00002467      -0.00006422      -5.38322083
Si       5.80292072       1.13452083      20.18571239      -0.00003448      -0.00002390      -0.00002017      -5.37629806
Si       5.80332172       3.35010398      11.43734678       0.00005642       0.00000886      -0.00000172      -5.38242443
Si       5.80300488       3.35199176      13.81966621      -0.00000368       0.00001123      -0.00003044      -5.38287414
Si       5.80308392       5.58487857      14.62468433       0.00003009      -0.00002998       0.00003825      -5.38249732
Si       5.80296918       5.58772771      17.00753658      -0.00003711      -0.00003144      -0.00005498      -5.38463356
Si       7.73763244      13.40040170      11.44214726       0.00005320       0.00002100       0.00006378      -5.38270501
Si       7.73720278       0.00037133      13.82358529       0.00004387      -0.00004564       0.00003742      -5.38273814
Si       7.73702434       2.23577214      14.62101449      -0.00000259      -0.00005841      -0.00007971      -5.38309100
Si       7.73630027       2.23906083      17.00223671      -0.00004615      -0.00005819      -0.00001550      -5.38206431
Si       7.73513456       4.47259031      17.81006896      -0.00004443       0.00004182      -0.00011953      -5.38108960
Si       7.73267994       4.48345090      20.19449198      -0.00009925       0.00003996      -0.00003964      -5.38183418
Si       9.67044467       1.11727453      17.79485495      -0.00000160      -0.00003044      -0.00002364      -5.38485208
Si       9.66934941       1.11729806      20.17031748      -0.00010162       0.00002231      -0.00001784      -5.38035580
Si       9.67243796       3.35273477      11.43700425      -0.00003008      -0.00005454      -0.00003450      -5.38297415
Si       9.67122357       3.35214329      13.81856532       0.00003880      -0.00007731      -0.00005682      -5.38256238
Si       9.67063090       5.58485278      14.62224549       0.00001254      -0.00001086      -0.00002990      -5.38296074
Si       9.66880234       5.58606561      17.00386164      -0.00002886       0.00004459       0.00002935      -5.38300222
Si       0.00050560       6.70107976      11.43963896      -0.00002000       0.00002948       0.00003432      -5.38337539
Si      11.60560752       6.70042386      13.82146090       0.00007123      -0.00001009       0.00003984      -5.38278353
Si      11.60535293       8.93207495      14.62723450       0.00000713       0.00001474      -0.00001674      -5.38247940
Si      11.60418509       8.92962175      17.00969315       0.00000533       0.00010090       0.00011618      -5.38261908
Si      11.60327592      11.16167481      17.81034266       0.00000792       0.00005690       0.00001918      -5.38254461
Si      11.59811657      11.15217120      20.19435430      -0.00002779      -0.00000314       0.00006597      -5.37533153
Si       1.93659317       7.81513472      17.80756024       0.00004156      -0.00003302       0.00005933      -5.38275820
Si       1.94235208       7.81091393      20.18886341       0.00005663       0.00006431       0.00002721      -5.38038089
Si       1.93555122      10.04901329      11.44507420      -0.00003952       0.00001334       0.00003360      -5.38255993
Si       1.93473759      10.04849672      13.82626609       0.00000463       0.00006132       0.00004078      -5.38314926
Si       1.93441811      12.28236051      14.62488510       0.00003221       0.00001432       0.00003183      -5.38296101
Si       1.93342715      12.27951730      17.00598505      -0.00003304       0.00004355       0.00008950      -5.38148866
Si       3.86993798       6.70009601      11.44003661       0.00008360       0.00001787      -0.00000242      -5.38346779
Si       3.86968502       6.70087957      13.82179953       0.00003502      -0.00002563       0.00006773      -5.38321018
Si       3.86980705       8.93290208      14.62721040       0.00003316       0.00004602      -0.00000556      -5.38274138
Si       3.87095853       8.93247196      17.00949817       0.00002667       0.00001735       0.00007117      -5.38373045
Si       3.87052929      11.16568138      17.80905795      -0.00002443       0.00001169      -0.00007499      -5.38341336
Si       3.87583729      11.16168186      20.19079061       0.00002733       0.00001502       0.00004168      -5.37904677
Si       5.80343876       7.81756338      17.81938341       0.00004966      -0.00005937      -0.00001734      -5.38037269
Si       5.80478533       7.81744307      20.20562830       0.00001139       0.00002614      -0.00002117      -5.39231177
Si       5.80357236      10.04878114      11.44400826       0.00001488      -0.00004724       0.00005946      -5.38311973
Si       5.80331715      10.05034376      13.82585673      -0.00001204      -0.00001684       0.00001643      -5.38319473
Si       5.80325600      12.28465417      14.62606173      -0.00000930      -0.00001340      -0.00003609      -5.38293544
Si       5.80334635      12.28643934      17.00823491      -0.00003593       0.00002944       0.00010616      -5.38167907
Si       7.73694887       6.70000697      11.44063827      -0.00003830      -0.00000965      -0.00000539      -5.38328189
Si       7.73654025       6.70127886      13.82272769      -0.00003319      -0.00001276      -0.00000550      -5.38339693
Si       7.73645538       8.93324643      14.62874000      -0.00003657       0.00004105       0.00000211      -5.38246289
Si       7.73519380       8.93331013      17.01175534      -0.00004011       0.00003071       0.00010294      -5.38472720
Si       7.73598559      11.16630566      17.81152786      -0.00000013      -0.00001190       0.00001082      -5.38284836
Si       7.73418570      11.16308704      20.19346402      -0.00010817       0.00000482      -0.00000088      -5.38321781
Si       9.66723500       7.81633796      17.81455366      -0.00002264      -0.00003073       0.00000912      -5.38118298
Si       9.65842607       7.81330163      20.19959071      -0.00005334       0.00004257       0.00002317      -5.38218652
Si       9.67109150      10.04914067      11.44534116      -0.00001463       0.00003121      -0.00001303      -5.38259583
Si       9.67089040      10.04899115      13.82652271      -0.00001079       0.00009798       0.00004024      -5.38336210
Si       9.67103196      12.28305664      14.62484192      -0.00008128       0.00001281       0.00002672      -5.38304928
Si       9.67044120      12.28120060      17.00573234      -0.00004469       0.00001839       0.00005902      -5.38245593
