216
Lattice="11.605727294873521 0.0 0.0 0.0 13.401139555673227 0.0 0.0 0.0 28.428109966331448" Properties=species:S:1:pos:R:3:forces:R:3 energy=-1163.9252347082409 free_energy=-1163.9252347082409 pbc="T T T"
Si       0.00000000       0.00000000      20.92624761      -0.00000000      -0.00013933       0.00001338
Si      11.60572729      13.40113956      23.29525678      -0.00000000      -0.00001723      -0.00000192
Si      11.60572729       2.23352326      24.08492650      -0.00000000      -0.00001868      -0.00004769
Si      11.60572729       2.23352326      26.45393566       0.00000000      -0.00008757       0.00008093
Si      11.60572729       4.46704652      27.24360538       0.00000000       0.00000910      -0.00011759
Si       0.00000000       4.46704652       1.18450458      -0.00000000       0.00002164       0.00016996
Si       1.93428788       1.11676163      27.24360538      -0.00000878       0.00000913      -0.00006945
Si       1.93428788       1.11676163       1.18450458      -0.00000878      -0.00000913       0.00006945
Si       1.93428788       3.35028489      20.92624761       0.00003970       0.00001344      -0.00000885
Si       1.93428788       3.35028489      23.29525678       0.00000045      -0.00004199       0.00002258
Si       1.93428788       5.58380815      24.08492650       0.00009597       0.00003644      -0.00004568
Si       1.93428788       5.58380815      26.45393566       0.00004069      -0.00003449       0.00004878
Si       3.86857576      13.40113956      20.92624761       0.00008964       0.00001726      -0.00004427
Si       3.86857576      13.40113956      23.29525678       0.00001649       0.00000020       0.00001256
Si       3.86857576       2.23352326      24.08492650       0.00005640       0.00003742      -0.00004379
Si       3.86857576       2.23352326      26.45393566      -0.00003595       0.00003288       0.00001938
Si       3.86857576       4.46704652      27.24360538      -0.00004237      -0.00002342       0.00000602
Si       3.86857576       4.46704652       1.18450458       0.00004012       0.00000130      -0.00000369
Si       5.80286365       1.11676163      27.24360538       0.00000000      -0.00002045      -0.00013630
Si       5.80286365       1.11676163       1.18450458      -0.00000000       0.00002045       0.00013630
Si       5.80286365       3.35028489      20.92624761      -0.00000000       0.00001929      -0.00001237
Si       5.80286365       3.35028489      23.29525678      -0.00000000      -0.00002265       0.00010015
Si       5.80286365       5.58380815      24.08492650      -0.00000000       0.00002172       0.00000184
B        5.80286365       5.58380815      26.45393566       0.00000000       0.00013657       0.00002948
Si       7.73715153      13.40113956      20.92624761      -0.00008964       0.00001726      -0.00004427
Si       7.73715153      13.40113956      23.29525678      -0.00001649       0.00000020       0.00001256
Si       7.73715153       2.23352326      24.08492650      -0.00005640       0.00003742      -0.00004379
Si       7.73715153       2.23352326      26.45393566       0.00003595       0.00003288       0.00001938
Si       7.73715153       4.46704652      27.24360538       0.00004237      -0.00002342       0.00000602
Si       7.73715153       4.46704652       1.18450458      -0.00004012       0.00000130      -0.00000369
Si       9.67143941       1.11676163      27.24360538       0.00000878       0.00000913      -0.00006945
Si       9.67143941       1.11676163       1.18450458       0.00000878      -0.00000913       0.00006945
Si       9.67143941       3.35028489      20.92624761      -0.00003970       0.00001344      -0.00000885
Si       9.67143941       3.35028489      23.29525678      -0.00000045      -0.00004199       0.00002258
Si       9.67143941       5.58380815      24.08492650      -0.00009597       0.00003644      -0.00004568
Si       9.67143941       5.58380815      26.45393566      -0.00004069      -0.00003449       0.00004878
Si      11.60572729       6.70056978      20.92624761       0.00000000       0.00005873      -0.00007472
Si      11.60572729       6.70056978      23.29525678      -0.00000000       0.00004814       0.00011492
Si      11.60572729       8.93409304      24.08492650       0.00000000      -0.00001311      -0.00007389
Si      11.60572729       8.93409304      26.45393566       0.00000000       0.00001426       0.00002344
Si      11.60572729      11.16761630      27.24360538      -0.00000000      -0.00002164      -0.00016996
Si       0.00000000      11.16761630       1.18450458       0.00000000      -0.00000910       0.00011759
Si       1.93428788       7.81733141      27.24360538       0.00000411      -0.00000922       0.00000589
Si       1.93428788       7.81733141       1.18450458       0.00000411       0.00000922      -0.00000589
Si       1.93428788      10.05085467      20.92624761       0.00001295      -0.00002680      -0.00004807
Si       1.93428788      10.05085467      23.29525678       0.00006456       0.00002844       0.00004117
Si       1.93428788      12.28437793      24.08492650      -0.00000213      -0.00006974      -0.00006237
Si       1.93428788      12.28437793      26.45393566       0.00004551       0.00002468      -0.00000402
Si       3.86857576       6.70056978      20.92624761      -0.00003294      -0.00001335       0.00002867
Si       3.86857576       6.70056978      23.29525678       0.00001530      -0.00000483       0.00007161
Si       3.86857576       8.93409304      24.08492650       0.00001273      -0.00000942      -0.00001055
Si       3.86857576       8.93409304      26.45393566       0.00015188      -0.00003993       0.00001900
Si       3.86857576      11.16761630      27.24360538       0.00004012      -0.00000130       0.00000369
Si       3.86857576      11.16761630       1.18450458      -0.00004237       0.00002342      -0.00000602
B        5.80286365       7.81733141      27.24360538      -0.00000000       0.00003789      -0.00016460
B        5.80286365       7.81733141       1.18450458      -0.00000000      -0.00003789       0.00016460
Si       5.80286365      10.05085467      20.92624761      -0.00000000       0.00005799      -0.00001531
Si       5.80286365      10.05085467      23.29525678      -0.00000000       0.00002722      -0.00005827
Si       5.80286365      12.28437793      24.08492650       0.00000000      -0.00004112      -0.00006064
Si       5.80286365      12.28437793      26.45393566      -0.00000000      -0.00000215      -0.00001311
Si       7.73715153       6.70056978      20.92624761       0.00003294      -0.00001335       0.00002867
Si       7.73715153       6.70056978      23.29525678      -0.00001530      -0.00000483       0.00007161
Si       7.73715153       8.93409304      24.08492650      -0.00001273      -0.00000942      -0.00001055
B        7.73715153       8.93409304      26.45393566      -0.00015188      -0.00003993       0.00001900
Si       7.73715153      11.16761630      27.24360538      -0.00004012      -0.00000130       0.00000369
Si       7.73715153      11.16761630       1.18450458       0.00004237       0.00002342      -0.00000602
Si       9.67143941       7.81733141      27.24360538      -0.00000411      -0.00000922       0.00000589
Si       9.67143941       7.81733141       1.18450458      -0.00000411       0.00000922      -0.00000589
Si       9.67143941      10.05085467      20.92624761      -0.00001295      -0.00002680      -0.00004807
Si       9.67143941      10.05085467      23.29525678      -0.00006456       0.00002844       0.00004117
Si       9.67143941      12.28437793      24.08492650       0.00000213      -0.00006974      -0.00006237
Si       9.67143941      12.28437793      26.45393566      -0.00004551       0.00002468      -0.00000402
Si      11.60572729      13.40113956       1.97417430       0.00000000       0.00008757      -0.00008093
Si      11.60572729      13.40113956       4.34318347       0.00000000       0.00001868       0.00004769
Si      11.60572729       2.23352326       5.13285319      -0.00000000       0.00001723       0.00000192
Si      11.60572729       2.23352326       7.50186235       0.00000000       0.00013933      -0.00001338
Si      11.60572729       4.46704652       8.29153207       0.00000000      -0.00001305       0.00004227
Si       0.00000000       4.46704652      10.66054124      -0.00000000      -0.00001421       0.00000915
Si       1.93428788       1.11676163       8.29153207       0.00000170       0.00001457      -0.00005995
Si       1.93428788       1.11676163      10.66054124       0.00003226       0.00003214      -0.00001205
Si       1.93428788       3.35028489       1.97417430       0.00004551      -0.00002468       0.00000402
Si       1.93428788       3.35028489       4.34318347      -0.00000213       0.00006974       0.00006237
Si       1.93428788       5.58380815       5.13285319       0.00006456      -0.00002844      -0.00004117
Si       1.93428788       5.58380815       7.50186235       0.00001295       0.00002680       0.00004807
Si       3.86857576      13.40113956       1.97417430      -0.00003595      -0.00003288      -0.00001938
Si       3.86857576      13.40113956       4.34318347       0.00005640      -0.00003742       0.00004379
Si       3.86857576       2.23352326       5.13285319       0.00001649      -0.00000020      -0.00001256
Si       3.86857576       2.23352326       7.50186235       0.00008964      -0.00001726       0.00004427
Si       3.86857576       4.46704652       8.29153207       0.00000157       0.00001564      -0.00000224
Si       3.86857576       4.46704652      10.66054124       0.00002604      -0.00001139       0.00007586
Si       5.80286365       1.11676163       8.29153207      -0.00000000       0.00003254      -0.00005415
Si       5.80286365       1.11676163      10.66054124      -0.00000000      -0.00003460      -0.00004999
Si       5.80286365       3.35028489       1.97417430      -0.00000000       0.00000215       0.00001311
Si       5.80286365       3.35028489       4.34318347      -0.00000000       0.00004112       0.00006064
Si       5.80286365       5.58380815       5.13285319      -0.00000000      -0.00002722       0.00005827
Si       5.80286365       5.58380815       7.50186235       0.00000000      -0.00005799       0.00001531
Si       7.73715153      13.40113956       1.97417430       0.00003595      -0.00003288      -0.00001938
Si       7.73715153      13.40113956       4.34318347      -0.00005640      -0.00003742       0.00004379
Si       7.73715153       2.23352326       5.13285319      -0.00001649      -0.00000020      -0.00001256
Si       7.73715153       2.23352326       7.50186235      -0.00008964      -0.00001726       0.00004427
Si       7.73715153       4.46704652       8.29153207      -0.00000157       0.00001564      -0.00000224
Si       7.73715153       4.46704652      10.66054124      -0.00002604      -0.00001139       0.00007586
Si       9.67143941       1.11676163       8.29153207      -0.00000170       0.00001457      -0.00005995
Si       9.67143941       1.11676163      10.66054124      -0.00003226       0.00003214      -0.00001205
Si       9.67143941       3.35028489       1.97417430      -0.00004551      -0.00002468       0.00000402
Si       9.67143941       3.35028489       4.34318347       0.00000213       0.00006974       0.00006237
Si       9.67143941       5.58380815       5.13285319      -0.00006456      -0.00002844      -0.00004117
Si       9.67143941       5.58380815       7.50186235      -0.00001295       0.00002680       0.00004807
Si      11.60572729       6.70056978       1.97417430      -0.00000000      -0.00001426      -0.00002344
Si      11.60572729       6.70056978       4.34318347      -0.00000000       0.00001311       0.00007389
Si      11.60572729       8.93409304       5.13285319      -0.00000000      -0.00004814      -0.00011492
Si      11.60572729       8.93409304       7.50186235       0.00000000      -0.00005873       0.00007472
Si      11.60572729      11.16761630       8.29153207       0.00000000       0.00006925      -0.00006507
Si       0.00000000      11.16761630      10.66054124       0.00000000       0.00002629      -0.00006724
Si       1.93428788       7.81733141       8.29153207       0.00000514      -0.00007564       0.00004109
Si       1.93428788       7.81733141      10.66054124       0.00002528      -0.00003416      -0.00002544
Si       1.93428788      10.05085467       1.97417430       0.00004069       0.00003449      -0.00004878
Si       1.93428788      10.05085467       4.34318347       0.00009597      -0.00003644       0.00004568
Si       1.93428788      12.28437793       5.13285319       0.00000045       0.00004199      -0.00002258
Si       1.93428788      12.28437793       7.50186235       0.00003970      -0.00001344       0.00000885
Si       3.86857576       6.70056978       1.97417430       0.00015188       0.00003993      -0.00001900
Si       3.86857576       6.70056978       4.34318347       0.00001273       0.00000942       0.00001055
Si       3.86857576       8.93409304       5.13285319       0.00001530       0.00000483      -0.00007161
Si       3.86857576       8.93409304       7.50186235      -0.00003294       0.00001335      -0.00002867
Si       3.86857576      11.16761630       8.29153207       0.00000508       0.00005085      -0.00007151
Si       3.86857576      11.16761630      10.66054124       0.00003176       0.00001096      -0.00009719
Si       5.80286365       7.81733141       8.29153207      -0.00000000      -0.00007875      -0.00001186
Si       5.80286365       7.81733141      10.66054124      -0.00000000       0.00001787       0.00003361
Si       5.80286365      10.05085467       1.97417430      -0.00000000      -0.00013657      -0.00002948
Si       5.80286365      10.05085467       4.34318347       0.00000000      -0.00002172      -0.00000184
Si       5.80286365      12.28437793       5.13285319       0.00000000       0.00002265      -0.00010015
Si       5.80286365      12.28437793       7.50186235       0.00000000      -0.00001929       0.00001237
Si       7.73715153       6.70056978       1.97417430      -0.00015188       0.00003993      -0.00001900
Si       7.73715153       6.70056978       4.34318347      -0.00001273       0.00000942       0.00001055
Si       7.73715153       8.93409304       5.13285319      -0.00001530       0.00000483      -0.00007161
Si       7.73715153       8.93409304       7.50186235       0.00003294       0.00001335      -0.00002867
Si       7.73715153      11.16761630       8.29153207      -0.00000508       0.00005085      -0.00007151
Si       7.73715153      11.16761630      10.66054124      -0.00003176       0.00001096      -0.00009719
Si       9.67143941       7.81733141       8.29153207      -0.00000514      -0.00007564       0.00004109
Si       9.67143941       7.81733141      10.66054124      -0.00002528      -0.00003416      -0.00002544
Si       9.67143941      10.05085467       1.97417430      -0.00004069       0.00003449      -0.00004878
Si       9.67143941      10.05085467       4.34318347      -0.00009597      -0.00003644       0.00004568
Si       9.67143941      12.28437793       5.13285319      -0.00000045       0.00004199      -0.00002258
Si       9.67143941      12.28437793       7.50186235      -0.00003970      -0.00001344       0.00000885
Si      11.60572729      13.40113956      11.45021096       0.00000000       0.00002029      -0.00002546
Si      11.60572729      13.40113956      13.81922012       0.00000000      -0.00001128       0.00001323
Si      11.60572729       2.23352326      14.60888984       0.00000000       0.00001128      -0.00001323
Si      11.60572729       2.23352326      16.97789901       0.00000000      -0.00002029       0.00002546
Si      11.60572729       4.46704652      17.76756873      -0.00000000      -0.00002629       0.00006724
Si       0.00000000       4.46704652      20.13657789      -0.00000000      -0.00006925       0.00006507
Si       1.93428788       1.11676163      17.76756873       0.00003226      -0.00003214       0.00001205
Si       1.93428788       1.11676163      20.13657789       0.00000170      -0.00001457       0.00005995
Si       1.93428788       3.35028489      11.45021096      -0.00003337       0.00001010      -0.00001122
Si       1.93428788       3.35028489      13.81922012      -0.00000749      -0.00002696       0.00005078
Si       1.93428788       5.58380815      14.60888984      -0.00003339      -0.00002833      -0.00002238
Si       1.93428788       5.58380815      16.97789901      -0.00000667      -0.00001362       0.00002949
Si       3.86857576      13.40113956      11.45021096      -0.00002685       0.00000834      -0.00001637
Si       3.86857576      13.40113956      13.81922012      -0.00005166       0.00006472      -0.00003248
Si       3.86857576       2.23352326      14.60888984      -0.00005166      -0.00006472       0.00003248
Si       3.86857576       2.23352326      16.97789901      -0.00002685      -0.00000834       0.00001637
Si       3.86857576       4.46704652      17.76756873       0.00003176      -0.00001096       0.00009719
Si       3.86857576       4.46704652      20.13657789       0.00000508      -0.00005085       0.00007151
Si       5.80286365       1.11676163      17.76756873      -0.00000000       0.00003460       0.00004999
Si       5.80286365       1.11676163      20.13657789       0.00000000      -0.00003254       0.00005415
Si       5.80286365       3.35028489      11.45021096       0.00000000      -0.00006293      -0.00004275
Si       5.80286365       3.35028489      13.81922012       0.00000000      -0.00001547       0.00010445
Si       5.80286365       5.58380815      14.60888984       0.00000000      -0.00005011       0.00016208
Si       5.80286365       5.58380815      16.97789901      -0.00000000      -0.00002605       0.00005664
Si       7.73715153      13.40113956      11.45021096       0.00002685       0.00000834      -0.00001637
Si       7.73715153      13.40113956      13.81922012       0.00005166       0.00006472      -0.00003248
Si       7.73715153       2.23352326      14.60888984       0.00005166      -0.00006472       0.00003248
Si       7.73715153       2.23352326      16.97789901       0.00002685      -0.00000834       0.00001637
Si       7.73715153       4.46704652      17.76756873      -0.00003176      -0.00001096       0.00009719
Si       7.73715153       4.46704652      20.13657789      -0.00000508      -0.00005085       0.00007151
Si       9.67143941       1.11676163      17.76756873      -0.00003226      -0.00003214       0.00001205
Si       9.67143941       1.11676163      20.13657789      -0.00000170      -0.00001457       0.00005995
Si       9.67143941       3.35028489      11.45021096       0.00003337       0.00001010      -0.00001122
Si       9.67143941       3.35028489      13.81922012       0.00000749      -0.00002696       0.00005078
Si       9.67143941       5.58380815      14.60888984       0.00003339      -0.00002833      -0.00002238
Si       9.67143941       5.58380815      16.97789901       0.00000667      -0.00001362       0.00002949
Si      11.60572729       6.70056978      11.45021096      -0.00000000       0.00000359       0.00002651
Si      11.60572729       6.70056978      13.81922012      -0.00000000      -0.00002318       0.00012750
Si      11.60572729       8.93409304      14.60888984      -0.00000000       0.00002318      -0.00012750
Si      11.60572729       8.93409304      16.97789901      -0.00000000      -0.00000359      -0.00002651
Si      11.60572729      11.16761630      17.76756873      -0.00000000       0.00001421      -0.00000915
Si       0.00000000      11.16761630      20.13657789      -0.00000000       0.00001305      -0.00004227
Si       1.93428788       7.81733141      17.76756873       0.00002528       0.00003416       0.00002544
Si       1.93428788       7.81733141      20.13657789       0.00000514       0.00007564      -0.00004109
Si       1.93428788      10.05085467      11.45021096      -0.00000667       0.00001362      -0.00002949
Si       1.93428788      10.05085467      13.81922012      -0.00003339       0.00002833       0.00002238
Si       1.93428788      12.28437793      14.60888984      -0.00000749       0.00002696      -0.00005078
Si       1.93428788      12.28437793      16.97789901      -0.00003337      -0.00001010       0.00001122
Si       3.86857576       6.70056978      11.45021096      -0.00000709      -0.00002893      -0.00004496
Si       3.86857576       6.70056978      13.81922012       0.00000900      -0.00006707       0.00003926
Si       3.86857576       8.93409304      14.60888984       0.00000900       0.00006707      -0.00003926
Si       3.86857576       8.93409304      16.97789901      -0.00000709       0.00002893       0.00004496
Si       3.86857576      11.16761630      17.76756873       0.00002604       0.00001139      -0.00007586
Si       3.86857576      11.16761630      20.13657789       0.00000157      -0.00001564       0.00000224
Si       5.80286365       7.81733141      17.76756873      -0.00000000      -0.00001787      -0.00003361
Si       5.80286365       7.81733141      20.13657789       0.00000000       0.00007875       0.00001186
Si       5.80286365      10.05085467      11.45021096      -0.00000000       0.00002605      -0.00005664
Si       5.80286365      10.05085467      13.81922012      -0.00000000       0.00005011      -0.00016208
Si       5.80286365      12.28437793      14.60888984       0.00000000       0.00001547      -0.00010445
Si       5.80286365      12.28437793      16.97789901      -0.00000000       0.00006293       0.00004275
Si       7.73715153       6.70056978      11.45021096       0.00000709      -0.00002893      -0.00004496
Si       7.73715153       6.70056978      13.81922012      -0.00000900      -0.00006707       0.00003926
Si       7.73715153       8.93409304      14.60888984      -0.00000900       0.00006707      -0.00003926
Si       7.73715153       8.93409304      16.97789901       0.00000709       0.00002893       0.00004496
Si       7.73715153      11.16761630      17.76756873      -0.00002604       0.00001139      -0.00007586
Si       7.73715153      11.16761630      20.13657789      -0.00000157      -0.00001564       0.00000224
Si       9.67143941       7.81733141      17.76756873      -0.00002528       0.00003416       0.00002544
Si       9.67143941       7.81733141      20.13657789      -0.00000514       0.00007564      -0.00004109
Si       9.67143941      10.05085467      11.45021096       0.00000667       0.00001362      -0.00002949
Si       9.67143941      10.05085467      13.81922012       0.00003339       0.00002833       0.00002238
Si       9.67143941      12.28437793      14.60888984       0.00000749       0.00002696      -0.00005078
Si       9.67143941      12.28437793      16.97789901       0.00003337      -0.00001010       0.00001122
