216
Lattice="11.605727294873521 0.0 0.0 0.0 13.401139555673227 0.0 0.0 0.0 28.428109966331448" Properties=species:S:1:pos:R:3 pbc="T T T"
Si       0.00000000       0.00000000      20.92624761
Si      11.60572729      13.40113956      23.29525678
Si      11.60572729       2.23352326      24.08492650
Si      11.60572729       2.23352326      26.45393566
Si      11.60572729       4.46704652      27.24360538
Si       0.00000000       4.46704652       1.18450458
Si       1.93428788       1.11676163      27.24360538
Si       1.93428788       1.11676163       1.18450458
Si       1.93428788       3.35028489      20.92624761
Si       1.93428788       3.35028489      23.29525678
Si       1.93428788       5.58380815      24.08492650
Si       1.93428788       5.58380815      26.45393566
Si       3.86857576      13.40113956      20.92624761
Si       3.86857576      13.40113956      23.29525678
Si       3.86857576       2.23352326      24.08492650
Si       3.86857576       2.23352326      26.45393566
Si       3.86857576       4.46704652      27.24360538
Si       3.86857576       4.46704652       1.18450458
Si       5.80286365       1.11676163      27.24360538
Si       5.80286365       1.11676163       1.18450458
Si       5.80286365       3.35028489      20.92624761
Si       5.80286365       3.35028489      23.29525678
Si       5.80286365       5.58380815      24.08492650
Si       5.80286365       5.58380815      26.45393566
Si       7.73715153      13.40113956      20.92624761
Si       7.73715153      13.40113956      23.29525678
Si       7.73715153       2.23352326      24.08492650
Si       7.73715153       2.23352326      26.45393566
Si       7.73715153       4.46704652      27.24360538
Si       7.73715153       4.46704652       1.18450458
Si       9.67143941       1.11676163      27.24360538
Si       9.67143941       1.11676163       1.18450458
Si       9.67143941       3.35028489      20.92624761
Si       9.67143941       3.35028489      23.29525678
Si       9.67143941       5.58380815      24.08492650
Si       9.67143941       5.58380815      26.45393566
Si      11.60572729       6.70056978      20.92624761
Si      11.60572729       6.70056978      23.29525678
Si      11.60572729       8.93409304      24.08492650
Si      11.60572729       8.93409304      26.45393566
Si      11.60572729      11.16761630      27.24360538
Si       0.00000000      11.16761630       1.18450458
Si       1.93428788       7.81733141      27.24360538
Si       1.93428788       7.81733141       1.18450458
Si       1.93428788      10.05085467      20.92624761
Si       1.93428788      10.05085467      23.29525678
Si       1.93428788      12.28437793      24.08492650
Si       1.93428788      12.28437793      26.45393566
Si       3.86857576       6.70056978      20.92624761
Si       3.86857576       6.70056978      23.29525678
Si       3.86857576       8.93409304      24.08492650
Si       3.86857576       8.93409304      26.45393566
Si       3.86857576      11.16761630      27.24360538
Si       3.86857576      11.16761630       1.18450458
Si       5.80286365       7.81733141      27.24360538
Si       5.80286365       7.81733141       1.18450458
Si       5.80286365      10.05085467      20.92624761
Si       5.80286365      10.05085467      23.29525678
Si       5.80286365      12.28437793      24.08492650
Si       5.80286365      12.28437793      26.45393566
Si       7.73715153       6.70056978      20.92624761
Si       7.73715153       6.70056978      23.29525678
Si       7.73715153       8.93409304      24.08492650
Si       7.73715153       8.93409304      26.45393566
Si       7.73715153      11.16761630      27.24360538
Si       7.73715153      11.16761630       1.18450458
Si       9.67143941       7.81733141      27.24360538
Si       9.67143941       7.81733141       1.18450458
Si       9.67143941      10.05085467      20.92624761
Si       9.67143941      10.05085467      23.29525678
Si       9.67143941      12.28437793      24.08492650
Si       9.67143941      12.28437793      26.45393566
Si      11.60572729      13.40113956       1.97417430
Si      11.60572729      13.40113956       4.34318347
Si      11.60572729       2.23352326       5.13285319
Si      11.60572729       2.23352326       7.50186235
Si      11.60572729       4.46704652       8.29153207
Si       0.00000000       4.46704652      10.66054124
Si       1.93428788       1.11676163       8.29153207
Si       1.93428788       1.11676163      10.66054124
Si       1.93428788       3.35028489       1.97417430
Si       1.93428788       3.35028489       4.34318347
Si       1.93428788       5.58380815       5.13285319
Si       1.93428788       5.58380815       7.50186235
Si       3.86857576      13.40113956       1.97417430
Si       3.86857576      13.40113956       4.34318347
Si       3.86857576       2.23352326       5.13285319
Si       3.86857576       2.23352326       7.50186235
Si       3.86857576       4.46704652       8.29153207
Si       3.86857576       4.46704652      10.66054124
Si       5.80286365       1.11676163       8.29153207
Si       5.80286365       1.11676163      10.66054124
Si       5.80286365       3.35028489       1.97417430
Si       5.80286365       3.35028489       4.34318347
Si       5.80286365       5.58380815       5.13285319
Si       5.80286365       5.58380815       7.50186235
Si       7.73715153      13.40113956       1.97417430
Si       7.73715153      13.40113956       4.34318347
Si       7.73715153       2.23352326       5.13285319
Si       7.73715153       2.23352326       7.50186235
Si       7.73715153       4.46704652       8.29153207
Si       7.73715153       4.46704652      10.66054124
Si       9.67143941       1.11676163       8.29153207
Si       9.67143941       1.11676163      10.66054124
Si       9.67143941       3.35028489       1.97417430
Si       9.67143941       3.35028489       4.34318347
Si       9.67143941       5.58380815       5.13285319
Si       9.67143941       5.58380815       7.50186235
Si      11.60572729       6.70056978       1.97417430
Si      11.60572729       6.70056978       4.34318347
Si      11.60572729       8.93409304       5.13285319
Si      11.60572729       8.93409304       7.50186235
Si      11.60572729      11.16761630       8.29153207
Si       0.00000000      11.16761630      10.66054124
Si       1.93428788       7.81733141       8.29153207
Si       1.93428788       7.81733141      10.66054124
Si       1.93428788      10.05085467       1.97417430
Si       1.93428788      10.05085467       4.34318347
Si       1.93428788      12.28437793       5.13285319
Si       1.93428788      12.28437793       7.50186235
Si       3.86857576       6.70056978       1.97417430
Si       3.86857576       6.70056978       4.34318347
Si       3.86857576       8.93409304       5.13285319
Si       3.86857576       8.93409304       7.50186235
Si       3.86857576      11.16761630       8.29153207
Si       3.86857576      11.16761630      10.66054124
Si       5.80286365       7.81733141       8.29153207
Si       5.80286365       7.81733141      10.66054124
Si       5.80286365      10.05085467       1.97417430
Si       5.80286365      10.05085467       4.34318347
Si       5.80286365      12.28437793       5.13285319
Si       5.80286365      12.28437793       7.50186235
Si       7.73715153       6.70056978       1.97417430
Si       7.73715153       6.70056978       4.34318347
Si       7.73715153       8.93409304       5.13285319
Si       7.73715153       8.93409304       7.50186235
Si       7.73715153      11.16761630       8.29153207
Si       7.73715153      11.16761630      10.66054124
Si       9.67143941       7.81733141       8.29153207
Si       9.67143941       7.81733141      10.66054124
Si       9.67143941      10.05085467       1.97417430
Si       9.67143941      10.05085467       4.34318347
Si       9.67143941      12.28437793       5.13285319
Si       9.67143941      12.28437793       7.50186235
Si      11.60572729      13.40113956      11.45021096
Si      11.60572729      13.40113956      13.81922012
Si      11.60572729       2.23352326      14.60888984
Si      11.60572729       2.23352326      16.97789901
Si      11.60572729       4.46704652      17.76756873
Si       0.00000000       4.46704652      20.13657789
Si       1.93428788       1.11676163      17.76756873
Si       1.93428788       1.11676163      20.13657789
Si       1.93428788       3.35028489      11.45021096
Si       1.93428788       3.35028489      13.81922012
Si       1.93428788       5.58380815      14.60888984
Si       1.93428788       5.58380815      16.97789901
Si       3.86857576      13.40113956      11.45021096
Si       3.86857576      13.40113956      13.81922012
Si       3.86857576       2.23352326      14.60888984
Si       3.86857576       2.23352326      16.97789901
Si       3.86857576       4.46704652      17.76756873
Si       3.86857576       4.46704652      20.13657789
Si       5.80286365       1.11676163      17.76756873
Si       5.80286365       1.11676163      20.13657789
Si       5.80286365       3.35028489      11.45021096
Si       5.80286365       3.35028489      13.81922012
Si       5.80286365       5.58380815      14.60888984
Si       5.80286365       5.58380815      16.97789901
Si       7.73715153      13.40113956      11.45021096
Si       7.73715153      13.40113956      13.81922012
Si       7.73715153       2.23352326      14.60888984
Si       7.73715153       2.23352326      16.97789901
Si       7.73715153       4.46704652      17.76756873
Si       7.73715153       4.46704652      20.13657789
Si       9.67143941       1.11676163      17.76756873
Si       9.67143941       1.11676163      20.13657789
Si       9.67143941       3.35028489      11.45021096
Si       9.67143941       3.35028489      13.81922012
Si       9.67143941       5.58380815      14.60888984
Si       9.67143941       5.58380815      16.97789901
Si      11.60572729       6.70056978      11.45021096
Si      11.60572729       6.70056978      13.81922012
Si      11.60572729       8.93409304      14.60888984
Si      11.60572729       8.93409304      16.97789901
Si      11.60572729      11.16761630      17.76756873
Si       0.00000000      11.16761630      20.13657789
Si       1.93428788       7.81733141      17.76756873
Si       1.93428788       7.81733141      20.13657789
Si       1.93428788      10.05085467      11.45021096
Si       1.93428788      10.05085467      13.81922012
Si       1.93428788      12.28437793      14.60888984
Si       1.93428788      12.28437793      16.97789901
Si       3.86857576       6.70056978      11.45021096
Si       3.86857576       6.70056978      13.81922012
Si       3.86857576       8.93409304      14.60888984
Si       3.86857576       8.93409304      16.97789901
Si       3.86857576      11.16761630      17.76756873
Si       3.86857576      11.16761630      20.13657789
Si       5.80286365       7.81733141      17.76756873
Si       5.80286365       7.81733141      20.13657789
Si       5.80286365      10.05085467      11.45021096
Si       5.80286365      10.05085467      13.81922012
Si       5.80286365      12.28437793      14.60888984
Si       5.80286365      12.28437793      16.97789901
Si       7.73715153       6.70056978      11.45021096
Si       7.73715153       6.70056978      13.81922012
Si       7.73715153       8.93409304      14.60888984
Si       7.73715153       8.93409304      16.97789901
Si       7.73715153      11.16761630      17.76756873
Si       7.73715153      11.16761630      20.13657789
Si       9.67143941       7.81733141      17.76756873
Si       9.67143941       7.81733141      20.13657789
Si       9.67143941      10.05085467      11.45021096
Si       9.67143941      10.05085467      13.81922012
Si       9.67143941      12.28437793      14.60888984
Si       9.67143941      12.28437793      16.97789901
