360
Lattice="11.605727294873521 0.0 0.0 0.0 16.412976941613742 0.0 0.0 0.0 38.6857576495784" Properties=species:S:1:pos:R:3:move_mask:L:1 pbc="F F F"
Si       5.31929168       7.52261443      18.85930685  F
Si       5.31929168       6.15486635     -17.89216291  F
Si      -4.35214774      -6.15486635     -17.89216291  F
Si      -4.35214774      -7.52261443     -15.95787503  F
Si      -2.41785985       7.52261443      18.85930685  F
Si      -2.41785985       6.15486635     -17.89216291  F
Si      -0.48357197      -6.15486635     -17.89216291  F
Si      -0.48357197      -7.52261443     -15.95787503  F
Si       1.45071591       7.52261443      18.85930685  F
Si       1.45071591       6.15486635     -17.89216291  F
Si       3.38500379      -6.15486635     -17.89216291  F
Si       3.38500379      -7.52261443     -15.95787503  F
Si       5.31929168      -3.41937020      18.85930685  F
Si       5.31929168      -4.78711827     -17.89216291  F
Si      -4.35214774      -0.68387404     -17.89216291  F
Si      -4.35214774      -2.05162212     -15.95787503  F
Si      -2.41785985      -3.41937020      18.85930685  F
Si      -2.41785985      -4.78711827     -17.89216291  F
Si      -0.48357197      -0.68387404     -17.89216291  F
Si      -0.48357197      -2.05162212     -15.95787503  F
Si       1.45071591      -3.41937020      18.85930685  F
Si       1.45071591      -4.78711827     -17.89216291  F
Si       3.38500379      -0.68387404     -17.89216291  F
Si       3.38500379      -2.05162212     -15.95787503  F
Si       5.31929168       2.05162212      18.85930685  F
Si       5.31929168       0.68387404     -17.89216291  F
Si      -4.35214774       4.78711827     -17.89216291  F
Si      -4.35214774       3.41937020     -15.95787503  F
Si      -2.41785985       2.05162212      18.85930685  F
Si      -2.41785985       0.68387404     -17.89216291  F
Si      -0.48357197       4.78711827     -17.89216291  F
Si      -0.48357197       3.41937020     -15.95787503  F
Si       1.45071591       2.05162212      18.85930685  F
Si       1.45071591       0.68387404     -17.89216291  F
Si       3.38500379       4.78711827     -17.89216291  F
Si       3.38500379       3.41937020     -15.95787503  F
Si       5.31929168       7.52261443     -15.95787503  F
Si       5.31929168       6.15486635     -14.02358715  F
Si      -4.35214774      -6.15486635     -14.02358715  F
Si      -4.35214774      -7.52261443     -12.08929927  F
Si      -2.41785985       7.52261443     -15.95787503  F
Si      -2.41785985       6.15486635     -14.02358715  F
Si      -0.48357197      -6.15486635     -14.02358715  F
Si      -0.48357197      -7.52261443     -12.08929927  F
Si       1.45071591       7.52261443     -15.95787503  F
Si       1.45071591       6.15486635     -14.02358715  F
Si       3.38500379      -6.15486635     -14.02358715  F
Si       3.38500379      -7.52261443     -12.08929927  F
Si       5.31929168      -3.41937020     -15.95787503  F
Si       5.31929168      -4.78711827     -14.02358715  F
Si      -4.35214774      -0.68387404     -14.02358715  F
Si      -4.35214774      -2.05162212     -12.08929927  F
Si      -2.41785985      -3.41937020     -15.95787503  F
Si      -2.41785985      -4.78711827     -14.02358715  F
Si      -0.48357197      -0.68387404     -14.02358715  F
Si      -0.48357197      -2.05162212     -12.08929927  F
Si       1.45071591      -3.41937020     -15.95787503  F
Si       1.45071591      -4.78711827     -14.02358715  F
Si       3.38500379      -0.68387404     -14.02358715  F
Si       3.38500379      -2.05162212     -12.08929927  F
Si       5.31929168       2.05162212     -15.95787503  F
Si       5.31929168       0.68387404     -14.02358715  F
Si      -4.35214774       4.78711827     -14.02358715  F
Si      -4.35214774       3.41937020     -12.08929927  F
Si      -2.41785985       2.05162212     -15.95787503  F
Si      -2.41785985       0.68387404     -14.02358715  F
Si      -0.48357197       4.78711827     -14.02358715  F
Si      -0.48357197       3.41937020     -12.08929927  F
Si       1.45071591       2.05162212     -15.95787503  F
Si       1.45071591       0.68387404     -14.02358715  F
Si       3.38500379       4.78711827     -14.02358715  F
Si       3.38500379       3.41937020     -12.08929927  F
Si       5.31929168       7.52261443     -12.08929927  F
Si       5.32136690       6.14292455     -10.16516444  T
Si      -4.35518930      -6.13933841     -10.14522547  T
Si      -4.36118958      -7.53292595      -8.21876240  T
Si      -2.41785985       7.52261443     -12.08929927  F
Si      -2.41754545       6.16156980     -10.14898938  T
Si      -0.49089479      -6.15681563     -10.14962884  T
Si      -0.49451908      -7.52285240      -8.22922974  T
Si       1.45071591       7.52261443     -12.08929927  F
Si       1.43416998       6.16306030     -10.16121317  T
Si       3.36476977      -6.15610597     -10.15698171  T
Si       3.38986396      -7.53462481      -8.21011938  T
Si       5.31929168      -3.41937020     -12.08929927  F
Si       5.31861705      -4.78290467     -10.16418508  T
Si      -4.34553817      -0.68018494     -10.16003936  T
Si      -4.35559710      -2.05130923      -8.22845527  T
Si      -2.41785985      -3.41937020     -12.08929927  F
Si      -2.41179175      -4.80427544     -10.14083773  T
Si      -0.47207182      -0.68118635     -10.16736876  T
Si      -0.46053639      -2.08033921      -8.22781813  T
Si       1.45071591      -3.41937020     -12.08929927  F
Si       1.46045564      -4.77469692     -10.14617416  T
Si       3.39607981      -0.69040409     -10.15878086  T
Si       3.39140234      -2.05595976      -8.23230279  T
Si       5.31929168       2.05162212     -12.08929927  F
Si       5.31928284       0.69179073     -10.15167601  T
Si      -4.32728208       4.80577208     -10.13383900  T
Si      -4.33132190       3.41556690      -8.21608843  T
Si      -2.41785985       2.05162212     -12.08929927  F
Si      -2.41557603       0.69292210     -10.16703194  T
Si      -0.47948559       4.79101933     -10.15701095  T
Si      -0.47916361       3.42813127      -8.21142954  T
Si       1.45071591       2.05162212     -12.08929927  F
Si       1.45171909       0.66932874     -10.15584184  T
Si       3.38984494       4.78675335     -10.14100889  T
Si       3.38095138       3.42295526      -8.22894672  T
Si       5.31476362       7.51210149      -8.18925355  T
Si       5.31874102       6.15147629      -6.27985916  T
Si      -4.33940042      -6.15122477      -6.28480569  T
Si      -4.36370677      -7.52903130      -4.36720190  T
Si      -2.40858684       7.52471972      -8.22244646  T
Si      -2.42352254       6.15778326      -6.29269200  T
Si      -0.48874731      -6.14927558      -6.28569675  T
Si      -0.49378099      -7.52389909      -4.34004839  T
Si       1.45435210       7.51820282      -8.21093200  T
Si       1.43656156       6.15025282      -6.29850955  T
Si       3.39330041      -6.14878757      -6.26786111  T
Si       3.37821490      -7.53563628      -4.36324237  T
Si       5.31692443      -3.39423778      -8.21424399  T
Si       5.32548505      -4.78987909      -6.29329485  T
Si      -4.34903937      -0.68237563      -6.27304276  T
Si      -4.35825634      -2.06071975      -4.35118679  T
Si      -2.40340392      -3.40915607      -8.21648150  T
Si      -2.41676658      -4.77725296      -6.30306858  T
Si      -0.49069214      -0.68761065      -6.28439589  T
Si      -0.47931861      -2.04447200      -4.36539576  T
Si       1.44577049      -3.42041836      -8.23945560  T
Si       1.44572400      -4.80307381      -6.28246886  T
Si       3.39260250      -0.67010384      -6.28590216  T
Si       3.39698088      -2.05678914      -4.35298801  T
Si       5.31353269       2.06222836      -8.22206133  T
Si       5.32654807       0.67075086      -6.27986599  T
Si      -4.34029046       4.78340281      -6.29759763  T
Si      -4.35963214       3.40802424      -4.34125734  T
Si      -2.40206917       2.05737797      -8.20619321  T
Si      -2.40620985       0.67178043      -6.28948729  T
Si      -0.46440660       4.78162718      -6.28098728  T
Si      -0.48798646       3.41701624      -4.36026847  T
Si       1.46341147       2.04775931      -8.21727215  T
Si       1.45300268       0.68813999      -6.29538900  T
Si       3.37260432       4.78430418      -6.28836182  T
Si       3.39321138       3.43003184      -4.33114741  T
Si       5.32734572       7.51515139      -4.34221069  T
Si       5.33905713       6.15332309      -2.42775192  T
Si      -4.35511221      -6.16312213      -2.42207440  T
Si      -4.36426038      -7.52647972      -0.46221885  T
Si      -2.42679431       7.52452708      -4.35101837  T
Si      -2.40788958       6.16867156      -2.42549254  T
Si      -0.47464725      -6.17594415      -2.42061479  T
Si      -0.45913119      -7.52098032      -0.48431550  T
Si       1.44394543       7.53577789      -4.34586640  T
Si       1.44388914       6.13413725      -2.41128420  T
Si       3.39903648      -6.13801046      -2.42824181  T
Si       3.39474326      -7.51196073      -0.47129468  T
Si       5.30766997      -3.40181584      -4.34460522  T
Si       5.30876229      -4.78106944      -2.42674669  T
Si      -4.35359109      -0.67798538      -2.40630645  T
Si      -4.34556432      -2.06511869      -0.48811948  T
Si      -2.42015713      -3.41549474      -4.33412471  T
Si      -2.42972056      -4.79869492      -2.42528764  T
Si      -0.48281505      -0.68649957      -2.42116257  T
Si      -0.48463707      -2.05887946      -0.48915846  T
Si       1.45882654      -3.40441930      -4.34804148  T
Si       1.43973464      -4.79849660      -2.42301663  T
Si       3.37995740      -0.67401506      -2.42082665  T
Si       3.38890491      -2.04221010      -0.46345364  T
Si       5.32782874       2.04831064      -4.34965607  T
Si       5.31692035       0.68254298      -2.41945612  T
Si      -4.33891636       4.78459300      -2.41712258  T
Si      -4.34980432       3.42108551      -0.48363905  T
Si      -2.41131873       2.05808252      -4.35141925  T
Si      -2.41786438       0.67893887      -2.42467325  T
Si      -0.48717059       4.77054506      -2.41287276  T
Si      -0.48403750       3.41541376      -0.47855717  T
Si       1.45858914       2.04787455      -4.35582202  T
Si       1.44167682       0.66975167      -2.42411990  T
Si       3.37317169       4.79708770      -2.42161451  T
Si       3.38084572       3.43537944      -0.47594908  T
Si       5.32318331       7.52941958      -0.48581297  T
Si       5.30870588       6.16479120       1.45881081  T
Si      -4.34622151      -6.14002655       1.44650262  T
Si      -4.33170915      -7.51226002       3.38563065  T
Si      -2.42707656       7.51536343      -0.48734208  T
Si      -2.41329079       6.17483102       1.44720192  T
Si      -0.47297269      -6.14511744       1.46238618  T
Si      -0.47588540      -7.51690223       3.38279776  T
Si       1.44427739       7.51745173      -0.47082241  T
Si       1.45256708       6.15146580       1.45217855  T
Si       3.38043226      -6.15493744       1.45397274  T
Si       3.38752262      -7.50675686       3.38977531  T
Si       5.31709741      -3.41964760      -0.47367566  T
Si       5.31430987      -4.77723954       1.45372946  T
Si      -4.35303934      -0.69929585       1.46534997  T
Si      -4.34576026      -2.06235709       3.38970926  T
Si      -2.41180032      -3.40744428      -0.46787639  T
Si      -2.40866543      -4.78473254       1.45077843  T
Si      -0.47364814      -0.65959687       1.43195203  T
Si      -0.47752324      -2.04259304       3.37723345  T
Si       1.43071043      -3.40542488      -0.48704676  T
Si       1.45610176      -4.79552721       1.44335029  T
Si       3.39326033      -0.69623982       1.43804800  T
Si       3.38616393      -2.06882692       3.38268241  T
Si       5.30455191       2.04916326      -0.48698774  T
Si       5.32198675       0.67171420       1.45788430  T
Si      -4.34242636       4.79903916       1.44965168  T
Si      -4.35679227       3.43995983       3.39732499  T
Si      -2.41819287       2.05361076      -0.50967357  T
Si      -2.41989114       0.67664346       1.45200958  T
Si      -0.49105385       4.79752382       1.45309896  T
Si      -0.49684738       3.41304902       3.39922765  T
Si       1.44860875       2.05260400      -0.48255871  T
Si       1.46823334       0.70138895       1.45489334  T
Si       3.38852919       4.79026699       1.44819432  T
Si       3.40040336       3.43428615       3.40262438  T
Si       5.31314275       7.52775076       3.39660074  T
Si       5.30955197       6.13568309       5.30765136  T
Si      -4.36118888      -6.16926783       5.31978405  T
Si      -4.34509901      -7.52838019       7.24381058  T
Si      -2.41466149       7.51822479       3.38878902  T
Si      -2.39797371       6.17054896       5.31950992  T
Si      -0.48103111      -6.16977859       5.32227871  T
Si      -0.47048810      -7.53231686       7.25417967  T
Si       1.46282755       7.52249533       3.37419615  T
Si       1.45114955       6.14783038       5.31572711  T
Si       3.38696191      -6.15612523       5.30082549  T
Si       3.38372892      -7.51084140       7.23924932  T
Si       5.32910856      -3.40690589       3.40557921  T
Si       5.29439198      -4.78217052       5.31948953  T
Si      -4.35608311      -0.68643803       5.30095905  T
Si      -4.36813390      -2.04601131       7.24121842  T
Si      -2.43582153      -3.42747060       3.38932084  T
Si      -2.41069333      -4.80099879       5.31464182  T
Si      -0.48620532      -0.67470003       5.32253977  T
Si      -0.47940102      -2.05514053       7.26341775  T
Si       1.45528990      -3.41278887       3.36952019  T
Si       1.44858319      -4.79260797       5.31451322  T
Si       3.38745362      -0.67257209       5.30517008  T
Si       3.37110944      -2.04795789       7.26778738  T
Si       5.32626817       2.05211955       3.39442228  T
Si       5.31722765       0.67694235       5.30457020  T
Si      -4.34686690       4.78602595       5.32660302  T
Si      -4.36008078       3.42728409       7.25567159  T
Si      -2.42499516       2.03389809       3.38461473  T
Si      -2.42478893       0.67759821       5.33309268  T
Si      -0.49216644       4.79497643       5.31649574  T
Si      -0.47188585       3.42206129       7.25978332  T
Si       1.44370870       2.05253061       3.38249675  T
Si       1.44095031       0.69247284       5.32590305  T
Si       3.38283184       4.77534024       5.31492057  T
Si       3.38566623       3.42318788       7.24563531  T
Si       5.32876259       7.51573506       7.25567292  T
Si       5.32821725       6.16005362       9.19355724  T
Si      -4.35994239      -6.14882674       9.19936288  T
Si      -4.34594842      -7.53249534      11.12772748  T
Si      -2.41773121       7.52307052       7.26547659  T
Si      -2.43598630       6.16829207       9.19174220  T
Si      -0.47923964      -6.16161402       9.18690447  T
Si      -0.47632730      -7.53116451      11.13483414  T
Si       1.44776477       7.52860505       7.23392168  T
Si       1.45489384       6.16059707       9.19258303  T
Si       3.37405612      -6.14504723       9.19470005  T
Si       3.36446321      -7.53021417      11.11340613  T
Si       5.30798239      -3.42103504       7.24842809  T
Si       5.31144331      -4.78625455       9.19095873  T
Si      -4.35479842      -0.69651348       9.17613440  T
Si      -4.36064688      -2.06483695      11.13389713  T
Si      -2.40988295      -3.40171341       7.25875371  T
Si      -2.41656752      -4.78526126       9.16970652  T
Si      -0.50830808      -0.68061152       9.19265586  T
Si      -0.49953917      -2.04397441      11.12435450  T
Si       1.44957813      -3.40484323       7.25782334  T
Si       1.44542377      -4.79924808       9.17515027  T
Si       3.39408717      -0.68337833       9.17996815  T
Si       3.38541517      -2.05764974      11.13019023  T
Si       5.32645059       2.04862631       7.24593919  T
Si       5.30981914       0.68449663       9.19019714  T
Si      -4.34876008       4.79000691       9.16987829  T
Si      -4.37469022       3.42173139      11.13096945  T
Si      -2.42649629       2.04953521       7.23910621  T
Si      -2.40696146       0.69197324       9.19877649  T
Si      -0.48302348       4.79603826       9.16490872  T
Si      -0.50271149       3.41224222      11.11745000  T
Si       1.44205995       2.03638155       7.25346106  T
Si       1.45310748       0.69081492       9.20502269  T
Si       3.39805494       4.79771718       9.19656066  T
Si       3.38971094       3.41729755      11.12444552  T
Si       5.32580963       7.50439773      11.11920804  T
Si       5.31929168       6.15486635      13.05644321  F
Si      -4.35214774      -6.15486635      13.05644321  F
Si      -4.35214774      -7.52261443      14.99073109  F
Si      -2.41044674       7.53099596      11.11138986  T
Si      -2.41785985       6.15486635      13.05644321  F
Si      -0.48357197      -6.15486635      13.05644321  F
Si      -0.48357197      -7.52261443      14.99073109  F
Si       1.43822031       7.51803872      11.10661368  T
Si       1.45071591       6.15486635      13.05644321  F
Si       3.38500379      -6.15486635      13.05644321  F
Si       3.38500379      -7.52261443      14.99073109  F
Si       5.31489394      -3.42463309      11.10633810  T
Si       5.31929168      -4.78711827      13.05644321  F
Si      -4.35214774      -0.68387404      13.05644321  F
Si      -4.35214774      -2.05162212      14.99073109  F
Si      -2.42279871      -3.43250567      11.12480901  T
Si      -2.41785985      -4.78711827      13.05644321  F
Si      -0.48357197      -0.68387404      13.05644321  F
Si      -0.48357197      -2.05162212      14.99073109  F
Si       1.43767623      -3.41303769      11.12396095  T
Si       1.45071591      -4.78711827      13.05644321  F
Si       3.38500379      -0.68387404      13.05644321  F
Si       3.38500379      -2.05162212      14.99073109  F
Si       5.31288254       2.03394926      11.12027610  T
Si       5.31929168       0.68387404      13.05644321  F
Si      -4.35214774       4.78711827      13.05644321  F
Si      -4.35214774       3.41937020      14.99073109  F
Si      -2.40318270       2.04532609      11.14841331  T
Si      -2.41785985       0.68387404      13.05644321  F
Si      -0.48357197       4.78711827      13.05644321  F
Si      -0.48357197       3.41937020      14.99073109  F
Si       1.45749962       2.05632486      11.11911313  T
Si       1.45071591       0.68387404      13.05644321  F
Si       3.38500379       4.78711827      13.05644321  F
Si       3.38500379       3.41937020      14.99073109  F
Si       5.31929168       7.52261443      14.99073109  F
Si       5.31929168       6.15486635      16.92501897  F
Si      -4.35214774      -6.15486635      16.92501897  F
Si      -4.35214774      -7.52261443      18.85930685  F
Si      -2.41785985       7.52261443      14.99073109  F
Si      -2.41785985       6.15486635      16.92501897  F
Si      -0.48357197      -6.15486635      16.92501897  F
Si      -0.48357197      -7.52261443      18.85930685  F
Si       1.45071591       7.52261443      14.99073109  F
Si       1.45071591       6.15486635      16.92501897  F
Si       3.38500379      -6.15486635      16.92501897  F
Si       3.38500379      -7.52261443      18.85930685  F
Si       5.31929168      -3.41937020      14.99073109  F
Si       5.31929168      -4.78711827      16.92501897  F
Si      -4.35214774      -0.68387404      16.92501897  F
Si      -4.35214774      -2.05162212      18.85930685  F
Si      -2.41785985      -3.41937020      14.99073109  F
Si      -2.41785985      -4.78711827      16.92501897  F
Si      -0.48357197      -0.68387404      16.92501897  F
Si      -0.48357197      -2.05162212      18.85930685  F
Si       1.45071591      -3.41937020      14.99073109  F
Si       1.45071591      -4.78711827      16.92501897  F
Si       3.38500379      -0.68387404      16.92501897  F
Si       3.38500379      -2.05162212      18.85930685  F
Si       5.31929168       2.05162212      14.99073109  F
Si       5.31929168       0.68387404      16.92501897  F
Si      -4.35214774       4.78711827      16.92501897  F
Si      -4.35214774       3.41937020      18.85930685  F
Si      -2.41785985       2.05162212      14.99073109  F
Si      -2.41785985       0.68387404      16.92501897  F
Si      -0.48357197       4.78711827      16.92501897  F
Si      -0.48357197       3.41937020      18.85930685  F
Si       1.45071591       2.05162212      14.99073109  F
Si       1.45071591       0.68387404      16.92501897  F
Si       3.38500379       4.78711827      16.92501897  F
Si       3.38500379       3.41937020      18.85930685  F
