360
Lattice="11.605727294873521 0.0 0.0 0.0 16.412976941613742 0.0 0.0 0.0 38.6857576495784" Properties=species:S:1:pos:R:3 pbc="F F F"
Si       5.31929168       7.52261443      18.85930685
Si       5.31929168       6.15486635     -17.89216291
Si      -4.35214774      -6.15486635     -17.89216291
Si      -4.35214774      -7.52261443     -15.95787503
Si      -2.41785985       7.52261443      18.85930685
Si      -2.41785985       6.15486635     -17.89216291
Si      -0.48357197      -6.15486635     -17.89216291
Si      -0.48357197      -7.52261443     -15.95787503
Si       1.45071591       7.52261443      18.85930685
Si       1.45071591       6.15486635     -17.89216291
Si       3.38500379      -6.15486635     -17.89216291
Si       3.38500379      -7.52261443     -15.95787503
Si       5.31929168      -3.41937020      18.85930685
Si       5.31929168      -4.78711827     -17.89216291
Si      -4.35214774      -0.68387404     -17.89216291
Si      -4.35214774      -2.05162212     -15.95787503
Si      -2.41785985      -3.41937020      18.85930685
Si      -2.41785985      -4.78711827     -17.89216291
Si      -0.48357197      -0.68387404     -17.89216291
Si      -0.48357197      -2.05162212     -15.95787503
Si       1.45071591      -3.41937020      18.85930685
Si       1.45071591      -4.78711827     -17.89216291
Si       3.38500379      -0.68387404     -17.89216291
Si       3.38500379      -2.05162212     -15.95787503
Si       5.31929168       2.05162212      18.85930685
Si       5.31929168       0.68387404     -17.89216291
Si      -4.35214774       4.78711827     -17.89216291
Si      -4.35214774       3.41937020     -15.95787503
Si      -2.41785985       2.05162212      18.85930685
Si      -2.41785985       0.68387404     -17.89216291
Si      -0.48357197       4.78711827     -17.89216291
Si      -0.48357197       3.41937020     -15.95787503
Si       1.45071591       2.05162212      18.85930685
Si       1.45071591       0.68387404     -17.89216291
Si       3.38500379       4.78711827     -17.89216291
Si       3.38500379       3.41937020     -15.95787503
Si       5.31929168       7.52261443     -15.95787503
Si       5.31929168       6.15486635     -14.02358715
Si      -4.35214774      -6.15486635     -14.02358715
Si      -4.35214774      -7.52261443     -12.08929927
Si      -2.41785985       7.52261443     -15.95787503
Si      -2.41785985       6.15486635     -14.02358715
Si      -0.48357197      -6.15486635     -14.02358715
Si      -0.48357197      -7.52261443     -12.08929927
Si       1.45071591       7.52261443     -15.95787503
Si       1.45071591       6.15486635     -14.02358715
Si       3.38500379      -6.15486635     -14.02358715
Si       3.38500379      -7.52261443     -12.08929927
Si       5.31929168      -3.41937020     -15.95787503
Si       5.31929168      -4.78711827     -14.02358715
Si      -4.35214774      -0.68387404     -14.02358715
Si      -4.35214774      -2.05162212     -12.08929927
Si      -2.41785985      -3.41937020     -15.95787503
Si      -2.41785985      -4.78711827     -14.02358715
Si      -0.48357197      -0.68387404     -14.02358715
Si      -0.48357197      -2.05162212     -12.08929927
Si       1.45071591      -3.41937020     -15.95787503
Si       1.45071591      -4.78711827     -14.02358715
Si       3.38500379      -0.68387404     -14.02358715
Si       3.38500379      -2.05162212     -12.08929927
Si       5.31929168       2.05162212     -15.95787503
Si       5.31929168       0.68387404     -14.02358715
Si      -4.35214774       4.78711827     -14.02358715
Si      -4.35214774       3.41937020     -12.08929927
Si      -2.41785985       2.05162212     -15.95787503
Si      -2.41785985       0.68387404     -14.02358715
Si      -0.48357197       4.78711827     -14.02358715
Si      -0.48357197       3.41937020     -12.08929927
Si       1.45071591       2.05162212     -15.95787503
Si       1.45071591       0.68387404     -14.02358715
Si       3.38500379       4.78711827     -14.02358715
Si       3.38500379       3.41937020     -12.08929927
Si       5.31929168       7.52261443     -12.08929927
Si       5.31929168       6.15486635     -10.15501138
Si      -4.35214774      -6.15486635     -10.15501138
Si      -4.35214774      -7.52261443      -8.22072350
Si      -2.41785985       7.52261443     -12.08929927
Si      -2.41785985       6.15486635     -10.15501138
Si      -0.48357197      -6.15486635     -10.15501138
Si      -0.48357197      -7.52261443      -8.22072350
Si       1.45071591       7.52261443     -12.08929927
Si       1.45071591       6.15486635     -10.15501138
Si       3.38500379      -6.15486635     -10.15501138
Si       3.38500379      -7.52261443      -8.22072350
Si       5.31929168      -3.41937020     -12.08929927
Si       5.31929168      -4.78711827     -10.15501138
Si      -4.35214774      -0.68387404     -10.15501138
Si      -4.35214774      -2.05162212      -8.22072350
Si      -2.41785985      -3.41937020     -12.08929927
Si      -2.41785985      -4.78711827     -10.15501138
Si      -0.48357197      -0.68387404     -10.15501138
Si      -0.48357197      -2.05162212      -8.22072350
Si       1.45071591      -3.41937020     -12.08929927
Si       1.45071591      -4.78711827     -10.15501138
Si       3.38500379      -0.68387404     -10.15501138
Si       3.38500379      -2.05162212      -8.22072350
Si       5.31929168       2.05162212     -12.08929927
Si       5.31929168       0.68387404     -10.15501138
Si      -4.35214774       4.78711827     -10.15501138
Si      -4.35214774       3.41937020      -8.22072350
Si      -2.41785985       2.05162212     -12.08929927
Si      -2.41785985       0.68387404     -10.15501138
Si      -0.48357197       4.78711827     -10.15501138
Si      -0.48357197       3.41937020      -8.22072350
Si       1.45071591       2.05162212     -12.08929927
Si       1.45071591       0.68387404     -10.15501138
Si       3.38500379       4.78711827     -10.15501138
Si       3.38500379       3.41937020      -8.22072350
Si       5.31929168       7.52261443      -8.22072350
Si       5.31929168       6.15486635      -6.28643562
Si      -4.35214774      -6.15486635      -6.28643562
Si      -4.35214774      -7.52261443      -4.35214774
Si      -2.41785985       7.52261443      -8.22072350
Si      -2.41785985       6.15486635      -6.28643562
Si      -0.48357197      -6.15486635      -6.28643562
Si      -0.48357197      -7.52261443      -4.35214774
Si       1.45071591       7.52261443      -8.22072350
Si       1.45071591       6.15486635      -6.28643562
Si       3.38500379      -6.15486635      -6.28643562
Si       3.38500379      -7.52261443      -4.35214774
Si       5.31929168      -3.41937020      -8.22072350
Si       5.31929168      -4.78711827      -6.28643562
Si      -4.35214774      -0.68387404      -6.28643562
Si      -4.35214774      -2.05162212      -4.35214774
Si      -2.41785985      -3.41937020      -8.22072350
Si      -2.41785985      -4.78711827      -6.28643562
Si      -0.48357197      -0.68387404      -6.28643562
Si      -0.48357197      -2.05162212      -4.35214774
Si       1.45071591      -3.41937020      -8.22072350
Si       1.45071591      -4.78711827      -6.28643562
Si       3.38500379      -0.68387404      -6.28643562
Si       3.38500379      -2.05162212      -4.35214774
Si       5.31929168       2.05162212      -8.22072350
Si       5.31929168       0.68387404      -6.28643562
Si      -4.35214774       4.78711827      -6.28643562
Si      -4.35214774       3.41937020      -4.35214774
Si      -2.41785985       2.05162212      -8.22072350
Si      -2.41785985       0.68387404      -6.28643562
Si      -0.48357197       4.78711827      -6.28643562
Si      -0.48357197       3.41937020      -4.35214774
Si       1.45071591       2.05162212      -8.22072350
Si       1.45071591       0.68387404      -6.28643562
Si       3.38500379       4.78711827      -6.28643562
Si       3.38500379       3.41937020      -4.35214774
Si       5.31929168       7.52261443      -4.35214774
Si       5.31929168       6.15486635      -2.41785985
Si      -4.35214774      -6.15486635      -2.41785985
Si      -4.35214774      -7.52261443      -0.48357197
Si      -2.41785985       7.52261443      -4.35214774
Si      -2.41785985       6.15486635      -2.41785985
Si      -0.48357197      -6.15486635      -2.41785985
Si      -0.48357197      -7.52261443      -0.48357197
Si       1.45071591       7.52261443      -4.35214774
Si       1.45071591       6.15486635      -2.41785985
Si       3.38500379      -6.15486635      -2.41785985
Si       3.38500379      -7.52261443      -0.48357197
Si       5.31929168      -3.41937020      -4.35214774
Si       5.31929168      -4.78711827      -2.41785985
Si      -4.35214774      -0.68387404      -2.41785985
Si      -4.35214774      -2.05162212      -0.48357197
Si      -2.41785985      -3.41937020      -4.35214774
Si      -2.41785985      -4.78711827      -2.41785985
Si      -0.48357197      -0.68387404      -2.41785985
Si      -0.48357197      -2.05162212      -0.48357197
Si       1.45071591      -3.41937020      -4.35214774
Si       1.45071591      -4.78711827      -2.41785985
Si       3.38500379      -0.68387404      -2.41785985
Si       3.38500379      -2.05162212      -0.48357197
Si       5.31929168       2.05162212      -4.35214774
Si       5.31929168       0.68387404      -2.41785985
Si      -4.35214774       4.78711827      -2.41785985
Si      -4.35214774       3.41937020      -0.48357197
Si      -2.41785985       2.05162212      -4.35214774
Si      -2.41785985       0.68387404      -2.41785985
Si      -0.48357197       4.78711827      -2.41785985
Si      -0.48357197       3.41937020      -0.48357197
Si       1.45071591       2.05162212      -4.35214774
Si       1.45071591       0.68387404      -2.41785985
Si       3.38500379       4.78711827      -2.41785985
Si       3.38500379       3.41937020      -0.48357197
Si       5.31929168       7.52261443      -0.48357197
Si       5.31929168       6.15486635       1.45071591
Si      -4.35214774      -6.15486635       1.45071591
Si      -4.35214774      -7.52261443       3.38500379
Si      -2.41785985       7.52261443      -0.48357197
Si      -2.41785985       6.15486635       1.45071591
Si      -0.48357197      -6.15486635       1.45071591
Si      -0.48357197      -7.52261443       3.38500379
Si       1.45071591       7.52261443      -0.48357197
Si       1.45071591       6.15486635       1.45071591
Si       3.38500379      -6.15486635       1.45071591
Si       3.38500379      -7.52261443       3.38500379
Si       5.31929168      -3.41937020      -0.48357197
Si       5.31929168      -4.78711827       1.45071591
Si      -4.35214774      -0.68387404       1.45071591
Si      -4.35214774      -2.05162212       3.38500379
Si      -2.41785985      -3.41937020      -0.48357197
Si      -2.41785985      -4.78711827       1.45071591
Si      -0.48357197      -0.68387404       1.45071591
Si      -0.48357197      -2.05162212       3.38500379
Si       1.45071591      -3.41937020      -0.48357197
Si       1.45071591      -4.78711827       1.45071591
Si       3.38500379      -0.68387404       1.45071591
Si       3.38500379      -2.05162212       3.38500379
Si       5.31929168       2.05162212      -0.48357197
Si       5.31929168       0.68387404       1.45071591
Si      -4.35214774       4.78711827       1.45071591
Si      -4.35214774       3.41937020       3.38500379
Si      -2.41785985       2.05162212      -0.48357197
Si      -2.41785985       0.68387404       1.45071591
Si      -0.48357197       4.78711827       1.45071591
Si      -0.48357197       3.41937020       3.38500379
Si       1.45071591       2.05162212      -0.48357197
Si       1.45071591       0.68387404       1.45071591
Si       3.38500379       4.78711827       1.45071591
Si       3.38500379       3.41937020       3.38500379
Si       5.31929168       7.52261443       3.38500379
Si       5.31929168       6.15486635       5.31929168
Si      -4.35214774      -6.15486635       5.31929168
Si      -4.35214774      -7.52261443       7.25357956
Si      -2.41785985       7.52261443       3.38500379
Si      -2.41785985       6.15486635       5.31929168
Si      -0.48357197      -6.15486635       5.31929168
Si      -0.48357197      -7.52261443       7.25357956
Si       1.45071591       7.52261443       3.38500379
Si       1.45071591       6.15486635       5.31929168
Si       3.38500379      -6.15486635       5.31929168
Si       3.38500379      -7.52261443       7.25357956
Si       5.31929168      -3.41937020       3.38500379
Si       5.31929168      -4.78711827       5.31929168
Si      -4.35214774      -0.68387404       5.31929168
Si      -4.35214774      -2.05162212       7.25357956
Si      -2.41785985      -3.41937020       3.38500379
Si      -2.41785985      -4.78711827       5.31929168
Si      -0.48357197      -0.68387404       5.31929168
Si      -0.48357197      -2.05162212       7.25357956
Si       1.45071591      -3.41937020       3.38500379
Si       1.45071591      -4.78711827       5.31929168
Si       3.38500379      -0.68387404       5.31929168
Si       3.38500379      -2.05162212       7.25357956
Si       5.31929168       2.05162212       3.38500379
Si       5.31929168       0.68387404       5.31929168
Si      -4.35214774       4.78711827       5.31929168
Si      -4.35214774       3.41937020       7.25357956
Si      -2.41785985       2.05162212       3.38500379
Si      -2.41785985       0.68387404       5.31929168
Si      -0.48357197       4.78711827       5.31929168
Si      -0.48357197       3.41937020       7.25357956
Si       1.45071591       2.05162212       3.38500379
Si       1.45071591       0.68387404       5.31929168
Si       3.38500379       4.78711827       5.31929168
Si       3.38500379       3.41937020       7.25357956
Si       5.31929168       7.52261443       7.25357956
Si       5.31929168       6.15486635       9.18786744
Si      -4.35214774      -6.15486635       9.18786744
Si      -4.35214774      -7.52261443      11.12215532
Si      -2.41785985       7.52261443       7.25357956
Si      -2.41785985       6.15486635       9.18786744
Si      -0.48357197      -6.15486635       9.18786744
Si      -0.48357197      -7.52261443      11.12215532
Si       1.45071591       7.52261443       7.25357956
Si       1.45071591       6.15486635       9.18786744
Si       3.38500379      -6.15486635       9.18786744
Si       3.38500379      -7.52261443      11.12215532
Si       5.31929168      -3.41937020       7.25357956
Si       5.31929168      -4.78711827       9.18786744
Si      -4.35214774      -0.68387404       9.18786744
Si      -4.35214774      -2.05162212      11.12215532
Si      -2.41785985      -3.41937020       7.25357956
Si      -2.41785985      -4.78711827       9.18786744
Si      -0.48357197      -0.68387404       9.18786744
Si      -0.48357197      -2.05162212      11.12215532
Si       1.45071591      -3.41937020       7.25357956
Si       1.45071591      -4.78711827       9.18786744
Si       3.38500379      -0.68387404       9.18786744
Si       3.38500379      -2.05162212      11.12215532
Si       5.31929168       2.05162212       7.25357956
Si       5.31929168       0.68387404       9.18786744
Si      -4.35214774       4.78711827       9.18786744
Si      -4.35214774       3.41937020      11.12215532
Si      -2.41785985       2.05162212       7.25357956
Si      -2.41785985       0.68387404       9.18786744
Si      -0.48357197       4.78711827       9.18786744
Si      -0.48357197       3.41937020      11.12215532
Si       1.45071591       2.05162212       7.25357956
Si       1.45071591       0.68387404       9.18786744
Si       3.38500379       4.78711827       9.18786744
Si       3.38500379       3.41937020      11.12215532
Si       5.31929168       7.52261443      11.12215532
Si       5.31929168       6.15486635      13.05644321
Si      -4.35214774      -6.15486635      13.05644321
Si      -4.35214774      -7.52261443      14.99073109
Si      -2.41785985       7.52261443      11.12215532
Si      -2.41785985       6.15486635      13.05644321
Si      -0.48357197      -6.15486635      13.05644321
Si      -0.48357197      -7.52261443      14.99073109
Si       1.45071591       7.52261443      11.12215532
Si       1.45071591       6.15486635      13.05644321
Si       3.38500379      -6.15486635      13.05644321
Si       3.38500379      -7.52261443      14.99073109
Si       5.31929168      -3.41937020      11.12215532
Si       5.31929168      -4.78711827      13.05644321
Si      -4.35214774      -0.68387404      13.05644321
Si      -4.35214774      -2.05162212      14.99073109
Si      -2.41785985      -3.41937020      11.12215532
Si      -2.41785985      -4.78711827      13.05644321
Si      -0.48357197      -0.68387404      13.05644321
Si      -0.48357197      -2.05162212      14.99073109
Si       1.45071591      -3.41937020      11.12215532
Si       1.45071591      -4.78711827      13.05644321
Si       3.38500379      -0.68387404      13.05644321
Si       3.38500379      -2.05162212      14.99073109
Si       5.31929168       2.05162212      11.12215532
Si       5.31929168       0.68387404      13.05644321
Si      -4.35214774       4.78711827      13.05644321
Si      -4.35214774       3.41937020      14.99073109
Si      -2.41785985       2.05162212      11.12215532
Si      -2.41785985       0.68387404      13.05644321
Si      -0.48357197       4.78711827      13.05644321
Si      -0.48357197       3.41937020      14.99073109
Si       1.45071591       2.05162212      11.12215532
Si       1.45071591       0.68387404      13.05644321
Si       3.38500379       4.78711827      13.05644321
Si       3.38500379       3.41937020      14.99073109
Si       5.31929168       7.52261443      14.99073109
Si       5.31929168       6.15486635      16.92501897
Si      -4.35214774      -6.15486635      16.92501897
Si      -4.35214774      -7.52261443      18.85930685
Si      -2.41785985       7.52261443      14.99073109
Si      -2.41785985       6.15486635      16.92501897
Si      -0.48357197      -6.15486635      16.92501897
Si      -0.48357197      -7.52261443      18.85930685
Si       1.45071591       7.52261443      14.99073109
Si       1.45071591       6.15486635      16.92501897
Si       3.38500379      -6.15486635      16.92501897
Si       3.38500379      -7.52261443      18.85930685
Si       5.31929168      -3.41937020      14.99073109
Si       5.31929168      -4.78711827      16.92501897
Si      -4.35214774      -0.68387404      16.92501897
Si      -4.35214774      -2.05162212      18.85930685
Si      -2.41785985      -3.41937020      14.99073109
Si      -2.41785985      -4.78711827      16.92501897
Si      -0.48357197      -0.68387404      16.92501897
Si      -0.48357197      -2.05162212      18.85930685
Si       1.45071591      -3.41937020      14.99073109
Si       1.45071591      -4.78711827      16.92501897
Si       3.38500379      -0.68387404      16.92501897
Si       3.38500379      -2.05162212      18.85930685
Si       5.31929168       2.05162212      14.99073109
Si       5.31929168       0.68387404      16.92501897
Si      -4.35214774       4.78711827      16.92501897
Si      -4.35214774       3.41937020      18.85930685
Si      -2.41785985       2.05162212      14.99073109
Si      -2.41785985       0.68387404      16.92501897
Si      -0.48357197       4.78711827      16.92501897
Si      -0.48357197       3.41937020      18.85930685
Si       1.45071591       2.05162212      14.99073109
Si       1.45071591       0.68387404      16.92501897
Si       3.38500379       4.78711827      16.92501897
Si       3.38500379       3.41937020      18.85930685
