218
Lattice="16.293 0.0 0.0 0.0 16.293 0.0 0.0 0.0 16.293" Properties=species:S:1:pos:R:3:forces:R:3 energy=-1160.1830451236892 free_energy=-1160.1830451236892 pbc="T T T"
Si       0.00000000       0.00000000       0.00000000      -0.00092412       0.00011505       0.00011505
Si       1.35775000       1.35775000       1.35775000      -0.00009792       0.00012987       0.00012987
Si       0.00000000       2.71550000       2.71550000       0.00003122       0.00177678       0.00177678
Si       1.35775000       4.07325000       4.07325000      -0.00335668      -0.00343966      -0.00343966
Si       2.71550000       0.00000000       2.71550000       0.00147880      -0.00024314       0.00031663
Si       4.07325000       1.35775000       4.07325000      -0.00182866      -0.00081568      -0.00032867
Si       2.71550000       2.71550000       0.00000000       0.00147880       0.00031663      -0.00024314
Si       4.07325000       4.07325000       1.35775000      -0.00182866      -0.00032867      -0.00081568
Si       0.00000000       0.00000000       5.43100000      -0.00136683       0.00090164       0.00036816
Si       1.35775000       1.35775000       6.78875000      -0.00062393      -0.00006340      -0.00287015
Si       0.00000000       2.71550000       8.14650000       0.00096760      -0.00061837       0.00402382
Si       1.35775000       4.07325000       9.50425000      -0.01470616      -0.01937732      -0.00288561
Si       2.71550000       0.00000000       8.14650000       0.00092734       0.00072726      -0.00304224
Si       4.07325000       1.35775000       9.50425000      -0.01219010      -0.01138953       0.00212996
Si       2.71550000       2.71550000       5.43100000      -0.01383152      -0.01471563      -0.00222461
Si       4.07325000       4.07325000       6.78875000       0.04521173       0.00849062      -0.00270135
Si       0.00000000       0.00000000      10.86200000      -0.00177073       0.00164227      -0.00020420
Si       1.35775000       1.35775000      12.21975000       0.00015766       0.00060197      -0.00390839
Si       0.00000000       2.71550000      13.57750000      -0.00021292      -0.00144137       0.00047243
Si       1.35775000       4.07325000      14.93525000       0.00195302       0.00545532      -0.00192798
Si       2.71550000       0.00000000      13.57750000       0.00277959      -0.00024563      -0.00399078
Si       4.07325000       1.35775000      14.93525000       0.00405055      -0.00049604       0.00040567
Si       2.71550000       2.71550000      10.86200000      -0.00112721       0.00044732       0.00517275
Si       4.07325000       4.07325000      12.21975000      -0.03990650      -0.03300179       0.02014335
Si       0.00000000       5.43100000       0.00000000      -0.00136683       0.00036816       0.00090164
Si       1.35775000       6.78875000       1.35775000      -0.00062393      -0.00287015      -0.00006340
Si       0.00000000       8.14650000       2.71550000       0.00096760       0.00402382      -0.00061837
Si       1.35775000       9.50425000       4.07325000      -0.01470616      -0.00288561      -0.01937732
Si       2.71550000       5.43100000       2.71550000      -0.01383152      -0.00222461      -0.01471563
Si       4.07325000       6.78875000       4.07325000       0.04521173      -0.00270135       0.00849062
Si       2.71550000       8.14650000       0.00000000       0.00092734      -0.00304224       0.00072726
Si       4.07325000       9.50425000       1.35775000      -0.01219010       0.00212996      -0.01138953
Si       0.00000000       5.43100000       5.43100000      -0.00780446      -0.00773922      -0.00773922
Si       1.35775000       6.78875000       6.78875000      -0.01487069      -0.00114403      -0.00114403
Si       0.00000000       8.14650000       8.14650000      -0.01664935      -0.00154896      -0.00154896
Si       1.35775000       9.50425000       9.50425000      -0.01676420       0.00061176       0.00061176
Si       2.71550000       5.43100000       8.14650000       0.04318767       0.03951665      -0.02038780
Si       4.07325000       6.78875000       9.50425000       0.07463542       0.16855159      -0.07564068
Si       2.71550000       8.14650000       5.43100000       0.04318767      -0.02038780       0.03951665
Si       4.07325000       9.50425000       6.78875000       0.07463542      -0.07564068       0.16855159
Si       0.00000000       5.43100000      10.86200000      -0.00658646      -0.00464585       0.00522592
Si       1.35775000       6.78875000      12.21975000      -0.02172460      -0.01137224       0.02919579
Si       0.00000000       8.14650000      13.57750000      -0.00112159      -0.00460983      -0.00068669
Si       1.35775000       9.50425000      14.93525000       0.00066076       0.00664342      -0.00016321
Si       2.71550000       5.43100000      13.57750000      -0.00700352      -0.00697362       0.00396622
Si       4.07325000       6.78875000      14.93525000      -0.02825112      -0.00887429       0.02691304
Si       2.71550000       8.14650000      10.86200000       0.02936503       0.00884539      -0.04153120
Si       4.07325000       9.50425000      12.21975000       0.09763037      -0.01816289      -0.04702304
Si       0.00000000      10.86200000       0.00000000      -0.00177073      -0.00020420       0.00164227
Si       1.35775000      12.21975000       1.35775000       0.00015766      -0.00390839       0.00060197
Si       0.00000000      13.57750000       2.71550000      -0.00021292       0.00047243      -0.00144137
Si       1.35775000      14.93525000       4.07325000       0.00195302      -0.00192798       0.00545532
Si       2.71550000      10.86200000       2.71550000      -0.00112721       0.00517275       0.00044732
Si       4.07325000      12.21975000       4.07325000      -0.03990650       0.02014335      -0.03300179
Si       2.71550000      13.57750000       0.00000000       0.00277959      -0.00399078      -0.00024563
Si       4.07325000      14.93525000       1.35775000       0.00405055       0.00040567      -0.00049604
Si       0.00000000      10.86200000       5.43100000      -0.00658646       0.00522592      -0.00464585
Si       1.35775000      12.21975000       6.78875000      -0.02172460       0.02919579      -0.01137224
Si       0.00000000      13.57750000       8.14650000      -0.00112159      -0.00068669      -0.00460983
Si       1.35775000      14.93525000       9.50425000       0.00066076      -0.00016321       0.00664342
Si       2.71550000      10.86200000       8.14650000       0.02936503      -0.04153120       0.00884539
Si       4.07325000      12.21975000       9.50425000       0.09763037      -0.04702304      -0.01816289
Si       2.71550000      13.57750000       5.43100000      -0.00700352       0.00396622      -0.00697362
Si       4.07325000      14.93525000       6.78875000      -0.02825112       0.02691304      -0.00887429
Si       0.00000000      10.86200000      10.86200000      -0.00209316       0.01330886       0.01330886
Si       1.35775000      12.21975000      12.21975000      -0.01098081       0.00744952       0.00744952
Si       0.00000000      13.57750000      13.57750000      -0.00042439      -0.00388009      -0.00388009
Si       1.35775000      14.93525000      14.93525000      -0.00014966       0.00059084       0.00059084
Si       2.71550000      10.86200000      13.57750000      -0.02403809       0.00287184       0.02841065
Si       4.07325000      12.21975000      14.93525000      -0.00426766       0.00342999       0.00122422
Si       2.71550000      13.57750000      10.86200000      -0.02403809       0.02841065       0.00287184
Si       4.07325000      14.93525000      12.21975000      -0.00426766       0.00122422       0.00342999
Si       5.43100000       0.00000000       0.00000000       0.00143563       0.00047556       0.00047556
Si       6.78875000       1.35775000       1.35775000      -0.00221972       0.00012711       0.00012711
Si       5.43100000       2.71550000       2.71550000      -0.00355619      -0.00466262      -0.00466262
Si       6.78875000       4.07325000       4.07325000       0.01909368      -0.00344655      -0.00344655
Si       8.14650000       0.00000000       2.71550000      -0.00220013       0.00016893      -0.00075195
Si       9.50425000       1.35775000       4.07325000      -0.00123795      -0.00190842      -0.00642714
Si       8.14650000       2.71550000       0.00000000      -0.00220013      -0.00075195       0.00016893
Si       9.50425000       4.07325000       1.35775000      -0.00123795      -0.00642714      -0.00190842
Si       5.43100000       0.00000000       5.43100000      -0.00501345       0.00725240      -0.00056120
Si       6.78875000       1.35775000       6.78875000      -0.01147000      -0.02117762      -0.00683637
Si       5.43100000       2.71550000       8.14650000      -0.01894171      -0.00727310       0.00297970
Si       6.78875000       4.07325000       9.50425000       0.01994622       0.04081085      -0.00807914
Si       8.14650000       0.00000000       8.14650000      -0.00760707       0.01291754      -0.00739138
Si       9.50425000       1.35775000       9.50425000       0.00601503      -0.00717371       0.00616560
Si       8.14650000       2.71550000       5.43100000       0.00789422      -0.01883141      -0.02393176
Si       9.50425000       4.07325000       6.78875000      -0.01685737       0.01162640      -0.02426595
Si       5.43100000       0.00000000      10.86200000      -0.01389974       0.00611297       0.00317678
Si       6.78875000       1.35775000      12.21975000       0.00380987      -0.00204969       0.00478465
Si       5.43100000       2.71550000      13.57750000      -0.01514667      -0.00371927       0.00200381
Si       6.78875000       4.07325000      14.93525000      -0.00084373      -0.00840117       0.01092317
Si       8.14650000       0.00000000      13.57750000       0.00421991       0.00618558       0.00536638
Si       9.50425000       1.35775000      14.93525000      -0.00098267      -0.00006454       0.00132764
Si       8.14650000       2.71550000      10.86200000      -0.00706330      -0.02106612       0.01672532
Si       9.50425000       4.07325000      12.21975000      -0.00535573      -0.01014401       0.02031693
Si       5.43100000       5.43100000       0.00000000      -0.00501345      -0.00056120       0.00725240
Si       6.78875000       6.78875000       1.35775000      -0.01147000      -0.00683637      -0.02117762
Si       5.43100000       8.14650000       2.71550000      -0.01894171       0.00297970      -0.00727310
Si       6.78875000       9.50425000       4.07325000       0.01994622      -0.00807914       0.04081085
Si       8.14650000       5.43100000       2.71550000       0.00789422      -0.02393176      -0.01883141
Si       9.50425000       6.78875000       4.07325000      -0.01685737      -0.02426595       0.01162640
Si       8.14650000       8.14650000       0.00000000      -0.00760707      -0.00739138       0.01291754
Si       9.50425000       9.50425000       1.35775000       0.00601503       0.00616560      -0.00717371
Si       5.43100000       5.43100000       5.43100000      -0.23166405       0.08479813       0.08479813
Si       6.78875000       6.78875000       6.78875000       0.45399479      -0.28564521      -0.28564521
Si       5.43100000       8.14650000       8.14650000     -30.36445116       0.07654554       0.07654554
Si       6.78875000       9.50425000       9.50425000     -30.07778342       0.22636748       0.22636748
Si       8.14650000       5.43100000       8.14650000       0.24585510      -0.27991412      -0.01343245
Si       9.50425000       6.78875000       9.50425000       0.24526628      -0.30163267      -0.01866358
Si       8.14650000       8.14650000       5.43100000       0.24585510      -0.01343245      -0.27991412
Si       9.50425000       9.50425000       6.78875000       0.24526628      -0.01866358      -0.30163267
Si       5.43100000       5.43100000      10.86200000       0.10816074      -0.01926324       0.05066508
Si       6.78875000       6.78875000      12.21975000      -0.26113173       0.05783829      -0.11877874
Si       5.43100000       8.14650000      13.57750000       0.03506948      -0.00756986      -0.02331681
Si       6.78875000       9.50425000      14.93525000      -0.01465600       0.01352599       0.01399489
Si       8.14650000       5.43100000      13.57750000       0.04358156      -0.00101340      -0.00140643
Si       9.50425000       6.78875000      14.93525000       0.00234078      -0.02013460       0.00917699
Si       8.14650000       8.14650000      10.86200000       0.70370769      -0.03847577       0.43450025
Si       9.50425000       9.50425000      12.21975000       0.16232017      -0.02924138       0.25693664
Si       5.43100000      10.86200000       0.00000000      -0.01389974       0.00317678       0.00611297
Si       6.78875000      12.21975000       1.35775000       0.00380987       0.00478465      -0.00204969
Si       5.43100000      13.57750000       2.71550000      -0.01514667       0.00200381      -0.00371927
Si       6.78875000      14.93525000       4.07325000      -0.00084373       0.01092317      -0.00840117
Si       8.14650000      10.86200000       2.71550000      -0.00706330       0.01672532      -0.02106612
Si       9.50425000      12.21975000       4.07325000      -0.00535573       0.02031693      -0.01014401
Si       8.14650000      13.57750000       0.00000000       0.00421991       0.00536638       0.00618558
Si       9.50425000      14.93525000       1.35775000      -0.00098267       0.00132764      -0.00006454
Si       5.43100000      10.86200000       5.43100000       0.10816074       0.05066508      -0.01926324
Si       6.78875000      12.21975000       6.78875000      -0.26113173      -0.11877874       0.05783829
Si       5.43100000      13.57750000       8.14650000       0.03506948      -0.02331681      -0.00756986
Si       6.78875000      14.93525000       9.50425000      -0.01465600       0.01399489       0.01352599
Si       8.14650000      10.86200000       8.14650000       0.70370769       0.43450025      -0.03847577
Si       9.50425000      12.21975000       9.50425000       0.16232017       0.25693664      -0.02924138
Si       8.14650000      13.57750000       5.43100000       0.04358156      -0.00140643      -0.00101340
Si       9.50425000      14.93525000       6.78875000       0.00234078       0.00917699      -0.02013460
Si       5.43100000      10.86200000      10.86200000      -0.17420381      -0.09750121      -0.09750121
Si       6.78875000      12.21975000      12.21975000       0.08101781       0.01078116       0.01078116
Si       5.43100000      13.57750000      13.57750000      -0.02889090       0.01636418       0.01636418
Si       6.78875000      14.93525000      14.93525000      -0.01202108       0.00102302       0.00102302
Si       8.14650000      10.86200000      13.57750000       0.02698241       0.02687368      -0.00553868
Si       9.50425000      12.21975000      14.93525000       0.00170738       0.01731038       0.01155488
Si       8.14650000      13.57750000      10.86200000       0.02698241      -0.00553868       0.02687368
Si       9.50425000      14.93525000      12.21975000       0.00170738       0.01155488       0.01731038
Si      10.86200000       0.00000000       0.00000000      -0.00044325       0.00035704       0.00035704
Si      12.21975000       1.35775000       1.35775000      -0.00203950       0.00022182       0.00022182
Si      10.86200000       2.71550000       2.71550000       0.00043214      -0.00101254      -0.00101254
Si      12.21975000       4.07325000       4.07325000      -0.00269952      -0.00000668      -0.00000668
Si      13.57750000       0.00000000       2.71550000      -0.00104312       0.00006975       0.00086070
Si      14.93525000       1.35775000       4.07325000       0.00007491      -0.00109028       0.00081744
Si      13.57750000       2.71550000       0.00000000      -0.00104312       0.00086070       0.00006975
Si      14.93525000       4.07325000       1.35775000       0.00007491       0.00081744      -0.00109028
Si      10.86200000       0.00000000       5.43100000      -0.00111481      -0.00231263      -0.00404301
Si      12.21975000       1.35775000       6.78875000       0.00056794       0.00407663       0.00154949
Si      10.86200000       2.71550000       8.14650000       0.01711035      -0.02332412      -0.00883488
Si      12.21975000       4.07325000       9.50425000       0.03018906      -0.03178986       0.01353542
Si      13.57750000       0.00000000       8.14650000       0.00292906      -0.00090618       0.00050112
Si      14.93525000       1.35775000       9.50425000       0.00125264      -0.00158226      -0.00028307
Si      13.57750000       2.71550000       5.43100000      -0.00139182       0.00269245       0.00075280
Si      14.93525000       4.07325000       6.78875000      -0.00041442      -0.00031175       0.00111726
Si      10.86200000       0.00000000      10.86200000       0.00366782       0.01055286       0.00586207
Si      12.21975000       1.35775000      12.21975000      -0.00127981      -0.00220390      -0.00154289
Si      10.86200000       2.71550000      13.57750000      -0.00230861      -0.00073525       0.00480589
Si      12.21975000       4.07325000      14.93525000       0.00031093      -0.00105518      -0.00005870
Si      13.57750000       0.00000000      13.57750000       0.00015667      -0.00136129      -0.00051649
Si      14.93525000       1.35775000      14.93525000      -0.00067109       0.00019479      -0.00043281
Si      13.57750000       2.71550000      10.86200000       0.00200142      -0.00061742      -0.00257406
Si      14.93525000       4.07325000      12.21975000      -0.00196420       0.00328379      -0.00272127
Si      10.86200000       5.43100000       0.00000000      -0.00111481      -0.00404301      -0.00231263
Si      12.21975000       6.78875000       1.35775000       0.00056794       0.00154949       0.00407663
Si      10.86200000       8.14650000       2.71550000       0.01711035      -0.00883488      -0.02332412
Si      12.21975000       9.50425000       4.07325000       0.03018906       0.01353542      -0.03178986
Si      13.57750000       5.43100000       2.71550000      -0.00139182       0.00075280       0.00269245
Si      14.93525000       6.78875000       4.07325000      -0.00041442       0.00111726      -0.00031175
Si      13.57750000       8.14650000       0.00000000       0.00292906       0.00050112      -0.00090618
Si      14.93525000       9.50425000       1.35775000       0.00125264      -0.00028307      -0.00158226
Si      10.86200000       5.43100000       5.43100000      -0.01352452       0.00556061       0.00556061
Si      12.21975000       6.78875000       6.78875000       0.02640389      -0.04039003      -0.04039003
Si      10.86200000       8.14650000       8.14650000      -0.08942767       0.02680561       0.02680561
Si      12.21975000       9.50425000       9.50425000      -0.10775244       0.00335796       0.00335796
Si      13.57750000       5.43100000       8.14650000       0.02857525      -0.02572624      -0.01935996
Si      14.93525000       6.78875000       9.50425000       0.01880191      -0.01279011       0.00899121
Si      13.57750000       8.14650000       5.43100000       0.02857525      -0.01935996      -0.02572624
Si      14.93525000       9.50425000       6.78875000       0.01880191       0.00899121      -0.01279011
Si      10.86200000       5.43100000      10.86200000       0.01140205      -0.02046746       0.05576107
Si      12.21975000       6.78875000      12.21975000       0.00468051      -0.00098885       0.00608825
Si      10.86200000       8.14650000      13.57750000       0.00109741      -0.01229577       0.00548389
Si      12.21975000       9.50425000      14.93525000       0.01476534      -0.00323140       0.01799632
Si      13.57750000       5.43100000      13.57750000       0.00021710       0.00144630       0.00197970
Si      14.93525000       6.78875000      14.93525000      -0.00132689       0.00039362       0.00076967
Si      13.57750000       8.14650000      10.86200000       0.01900501      -0.00522227       0.02153203
Si      14.93525000       9.50425000      12.21975000       0.01369211      -0.00611096       0.01110609
Si      10.86200000      10.86200000       0.00000000       0.00366782       0.00586207       0.01055286
Si      12.21975000      12.21975000       1.35775000      -0.00127981      -0.00154289      -0.00220390
Si      10.86200000      13.57750000       2.71550000      -0.00230861       0.00480589      -0.00073525
Si      12.21975000      14.93525000       4.07325000       0.00031093      -0.00005870      -0.00105518
Si      13.57750000      10.86200000       2.71550000       0.00200142      -0.00257406      -0.00061742
Si      14.93525000      12.21975000       4.07325000      -0.00196420      -0.00272127       0.00328379
Si      13.57750000      13.57750000       0.00000000       0.00015667      -0.00051649      -0.00136129
Si      14.93525000      14.93525000       1.35775000      -0.00067109      -0.00043281       0.00019479
Si      10.86200000      10.86200000       5.43100000       0.01140205       0.05576107      -0.02046746
Si      12.21975000      12.21975000       6.78875000       0.00468051       0.00608825      -0.00098885
Si      10.86200000      13.57750000       8.14650000       0.00109741       0.00548389      -0.01229577
Si      12.21975000      14.93525000       9.50425000       0.01476534       0.01799632      -0.00323140
Si      13.57750000      10.86200000       8.14650000       0.01900501       0.02153203      -0.00522227
Si      14.93525000      12.21975000       9.50425000       0.01369211       0.01110609      -0.00611096
Si      13.57750000      13.57750000       5.43100000       0.00021710       0.00197970       0.00144630
Si      14.93525000      14.93525000       6.78875000      -0.00132689       0.00076967       0.00039362
Si      10.86200000      10.86200000      10.86200000       0.01592039      -0.04249529      -0.04249529
Si      12.21975000      12.21975000      12.21975000       0.03295334       0.04505882       0.04505882
Si      10.86200000      13.57750000      13.57750000       0.00018192       0.00958063       0.00958063
Si      12.21975000      14.93525000      14.93525000      -0.00477358      -0.00158304      -0.00158304
Si      13.57750000      10.86200000      13.57750000       0.01756110       0.01338112       0.01566341
Si      14.93525000      12.21975000      14.93525000       0.00013536      -0.00256810       0.00176968
Si      13.57750000      13.57750000      10.86200000       0.01756110       0.01566341       0.01338112
Si      14.93525000      14.93525000      12.21975000       0.00013536       0.00176968      -0.00256810
B        6.78875000       8.14650000       8.14650000      28.47897226      -0.40047430      -0.40047430
B        8.14650000       9.50425000       9.50425000      29.01193575       0.32526904       0.32526904
