218
Lattice="16.293 0.0 0.0 0.0 16.293 0.0 0.0 0.0 16.293" Properties=species:S:1:pos:R:3:forces:R:3 energy=-1172.1916359350378 free_energy=-1172.1916359350378 pbc="T T T"
Si       0.00031426       0.00878658       0.00878658      -0.00000369       0.00001907       0.00001907
Si       1.36349980       1.36271683       1.36271683       0.00001047      -0.00000431      -0.00000431
Si       0.00564382       2.71768173       2.71768173       0.00000242       0.00000889       0.00000889
Si       1.36451858       4.07487298       4.07487298      -0.00000886       0.00001219       0.00001219
Si       2.71910940       0.00506126       2.72222583       0.00002300       0.00000158      -0.00000226
Si       4.07765146       1.35935224       4.07902099      -0.00000075      -0.00000142      -0.00000410
Si       2.71910940       2.72222583       0.00506126       0.00002300      -0.00000226       0.00000158
Si       4.07765146       4.07902099       1.35935224      -0.00000075      -0.00000410      -0.00000142
Si       0.00438114       0.00337934       5.43296725      -0.00002133       0.00002425       0.00000621
Si       1.36293651       1.35927264       6.79036184       0.00000147      -0.00000864       0.00000149
Si       0.00125048       2.71021029       8.14862280      -0.00002458       0.00000657       0.00000590
Si       1.35030352       4.06828833       9.50881419      -0.00000060      -0.00000278      -0.00000727
Si       2.71898511       0.00360140       8.14932373      -0.00002794      -0.00000815       0.00001167
Si       4.07572735       1.36185690       9.50752662       0.00002938       0.00001505      -0.00000022
Si       2.72133812       2.71990068       5.43753495       0.00001749       0.00000349       0.00001690
Si       4.07664240       4.07936577       6.80093521      -0.00001097       0.00000019       0.00001040
Si      -0.00385349       0.01261630      10.87198475      -0.00002118       0.00000870      -0.00000599
Si       1.35825053       1.36734974      12.22681666       0.00000972      -0.00001124      -0.00000960
Si       0.00136994       2.72075667      13.58522348      -0.00001483       0.00000713      -0.00000460
Si       1.36183950       4.07683662      14.94002262       0.00001126      -0.00000484      -0.00001021
Si       2.71285117       0.01511823      13.59006230       0.00002926      -0.00000033       0.00000177
Si       4.07790806       1.36868564      14.94124370      -0.00000716      -0.00001647      -0.00001351
Si       2.71781037       2.72012600      10.86615854      -0.00001433       0.00002469      -0.00000354
Si       4.07997744       4.08127952      12.21716195      -0.00000895      -0.00000576      -0.00001056
Si       0.00438114       5.43296725       0.00337934      -0.00002133       0.00000621       0.00002425
Si       1.36293651       6.79036184       1.35927264       0.00000147       0.00000149      -0.00000864
Si       0.00125048       8.14862280       2.71021029      -0.00002458       0.00000590       0.00000657
Si       1.35030352       9.50881419       4.06828833      -0.00000060      -0.00000727      -0.00000278
Si       2.72133812       5.43753495       2.71990068       0.00001749       0.00001690       0.00000349
Si       4.07664240       6.80093521       4.07936577      -0.00001097       0.00001040       0.00000019
Si       2.71898511       8.14932373       0.00360140      -0.00002794       0.00001167      -0.00000815
Si       4.07572735       9.50752662       1.36185690       0.00002938      -0.00000022       0.00001505
Si       0.00222466       5.42892988       5.42892988      -0.00002480       0.00002433       0.00002433
Si       1.34829199       6.79155857       6.79155857      -0.00001072      -0.00001200      -0.00001200
Si      -0.00612375       8.15198569       8.15198569       0.00002064       0.00000365       0.00000365
Si       1.33474301       9.51972519       9.51972519      -0.00001681       0.00000832       0.00000832
Si       2.69764030       5.42733358       8.14956957       0.00001525       0.00000945       0.00000742
Si       3.98416350       6.76788140       9.56381043      -0.00002491      -0.00001104       0.00000762
Si       2.69764030       8.14956957       5.42733358       0.00001525       0.00000742       0.00000945
Si       3.98416350       9.56381043       6.76788140      -0.00002491       0.00000762      -0.00001104
Si      -0.00444664       5.42810893      10.87070994      -0.00000401       0.00000619       0.00001305
Si       1.33543214       6.78654390      12.24450200      -0.00000124      -0.00000974       0.00000333
Si      -0.00990070       8.15299408      13.59459942      -0.00000584       0.00001234       0.00000073
Si       1.34553799       9.50856997      14.95635132      -0.00000642      -0.00001693      -0.00001173
Si       2.71718873       5.43278643      13.58100876       0.00000458       0.00001101      -0.00002457
Si       4.07763042       6.79451130      14.93207675      -0.00001132       0.00002433      -0.00001248
Si       2.66871631       8.15746239      10.89937441       0.00000851       0.00000427       0.00000518
Si       4.02500091       9.51749797      12.26515592      -0.00000083      -0.00000099       0.00000389
Si      -0.00385349      10.87198475       0.01261630      -0.00002118      -0.00000599       0.00000870
Si       1.35825053      12.22681666       1.36734974       0.00000972      -0.00000960      -0.00001124
Si       0.00136994      13.58522348       2.72075667      -0.00001483      -0.00000460       0.00000713
Si       1.36183950      14.94002262       4.07683662       0.00001126      -0.00001021      -0.00000484
Si       2.71781037      10.86615854       2.72012600      -0.00001433      -0.00000354       0.00002469
Si       4.07997744      12.21716195       4.08127952      -0.00000895      -0.00001056      -0.00000576
Si       2.71285117      13.59006230       0.01511823       0.00002926       0.00000177      -0.00000033
Si       4.07790806      14.94124370       1.36868564      -0.00000716      -0.00001351      -0.00001647
Si      -0.00444664      10.87070994       5.42810893      -0.00000401       0.00001305       0.00000619
Si       1.33543214      12.24450200       6.78654390      -0.00000124       0.00000333      -0.00000974
Si      -0.00990070      13.59459942       8.15299408      -0.00000584       0.00000073       0.00001234
Si       1.34553799      14.95635132       9.50856997      -0.00000642      -0.00001173      -0.00001693
Si       2.66871631      10.89937441       8.15746239       0.00000851       0.00000518       0.00000427
Si       4.02500091      12.26515592       9.51749797      -0.00000083       0.00000389      -0.00000099
Si       2.71718873      13.58100876       5.43278643       0.00000458      -0.00002457       0.00001101
Si       4.07763042      14.93207675       6.79451130      -0.00001132      -0.00001248       0.00002433
Si      -0.01162034      10.87946490      10.87946490       0.00001201      -0.00000852      -0.00000852
Si       1.34319997      12.23909912      12.23909912      -0.00000198      -0.00000399      -0.00000399
Si      -0.00787840      13.59407814      13.59407814      -0.00001911      -0.00000067      -0.00000067
Si       1.35740142      14.94723535      14.94723535      -0.00000116      -0.00001542      -0.00001542
Si       2.68706382      10.88038613      13.61363997       0.00001476      -0.00000731      -0.00000734
Si       4.06723537      12.23466978      14.95395052       0.00000446      -0.00001481      -0.00000724
Si       2.68706382      13.61363997      10.88038613       0.00001476      -0.00000734      -0.00000731
Si       4.06723537      14.95395052      12.23466978       0.00000446      -0.00000724      -0.00001481
Si       5.43098317       0.00948454       0.00948454      -0.00002304      -0.00000436      -0.00000436
Si       6.79389815       1.35900992       1.35900992      -0.00000856      -0.00001866      -0.00001866
Si       5.43207469       2.71076734       2.71076734       0.00000096       0.00001315       0.00001315
Si       6.78943713       4.06115605       4.06115605      -0.00000282      -0.00000458      -0.00000458
Si       8.14472810      -0.00777475       2.71964311      -0.00000990       0.00000615      -0.00000809
Si       9.51136624       1.34510491       4.06617319       0.00000938      -0.00001346       0.00000168
Si       8.14472810       2.71964311      -0.00777475      -0.00000990      -0.00000809       0.00000615
Si       9.51136624       4.06617319       1.34510491       0.00000938       0.00000168      -0.00001346
Si       5.43339418      -0.00331632       5.43590828      -0.00002203       0.00000720      -0.00000749
Si       6.79400886       1.35371544       6.78880461       0.00000105       0.00000348       0.00000598
Si       5.43813919       2.71691022       8.14814017       0.00001090       0.00002868      -0.00000139
Si       6.80415243       4.08420638       9.48848313       0.00001525       0.00000965       0.00000619
Si       8.14787000      -0.00374827       8.15193462      -0.00000447       0.00000846      -0.00000538
Si       9.50896116       1.35327805       9.50897909      -0.00000159      -0.00000778      -0.00000035
Si       8.15595541       2.69951216       5.41898656      -0.00001625       0.00001693       0.00000193
Si       9.55769208       4.02411181       6.76718527      -0.00000192       0.00000017       0.00000084
Si       5.43049328       0.00397392      10.86782297       0.00000510      -0.00001283      -0.00000110
Si       6.79083278       1.36290400      12.22086576       0.00002189      -0.00000354      -0.00001184
Si       5.43322188       2.72321199      13.57637763      -0.00000879       0.00000277       0.00002322
Si       6.79243947       4.08721684      14.92398509       0.00001084      -0.00000084      -0.00001717
Si       8.14747925       0.00657761      13.58172258       0.00001077      -0.00000736      -0.00000466
Si       9.50528584       1.36171817      14.93618615       0.00000924      -0.00000959      -0.00000544
Si       8.14706960       2.71956160      10.86011087       0.00002084       0.00000312       0.00000611
Si       9.50229069       4.07818330      12.22027317       0.00000720       0.00002096       0.00000086
Si       5.43339418       5.43590828      -0.00331632      -0.00002203      -0.00000749       0.00000720
Si       6.79400886       6.78880461       1.35371544       0.00000105       0.00000598       0.00000348
Si       5.43813919       8.14814017       2.71691022       0.00001090      -0.00000139       0.00002868
Si       6.80415243       9.48848313       4.08420638       0.00001525       0.00000619       0.00000965
Si       8.15595541       5.41898656       2.69951216      -0.00001625       0.00000193       0.00001693
Si       9.55769208       6.76718527       4.02411181      -0.00000192       0.00000084       0.00000017
Si       8.14787000       8.15193462      -0.00374827      -0.00000447      -0.00000538       0.00000846
Si       9.50896116       9.50897909       1.35327805      -0.00000159      -0.00000035      -0.00000778
Si       5.41655379       5.41029912       5.41029912       0.00002493       0.00001591       0.00001591
Si       7.01252951       6.60597428       6.60597428      -0.00003946      -0.00002274      -0.00002274
Si       5.12162709       8.30565505       8.30565505       0.00008434       0.00002535       0.00002535
Si       6.48903890       9.65954095       9.65954095      -0.00000277      -0.00000472      -0.00000472
Si       8.23709405       5.34783986       8.13088889       0.00000821       0.00000991      -0.00000124
Si       9.54682790       6.77560400       9.47711677       0.00001686      -0.00000757      -0.00000357
Si       8.23709405       8.13088889       5.34783986       0.00000821      -0.00000124       0.00000991
Si       9.54682790       9.47711677       6.77560400       0.00001686      -0.00000357      -0.00000757
Si       5.43426893       5.44156959      10.84283169      -0.00000214      -0.00000884       0.00000578
Si       6.79269034       6.82802744      12.15657565       0.00001452      -0.00000886       0.00001218
Si       5.43278576       8.15533451      13.56634659      -0.00001187       0.00000062       0.00000532
Si       6.78727812       9.51158568      14.93362139       0.00000703      -0.00000455      -0.00000701
Si       8.13735963       5.45694479      13.55203507      -0.00003925       0.00000406      -0.00000485
Si       9.50169101       6.79598462      14.92544722      -0.00000147      -0.00000038      -0.00000988
Si       8.16272002       8.22067065      10.80382020      -0.00001894      -0.00000306      -0.00000230
Si       9.51365112       9.52334611      12.21069376       0.00003576       0.00001148       0.00002215
Si       5.43049328      10.86782297       0.00397392       0.00000510      -0.00000110      -0.00001283
Si       6.79083278      12.22086576       1.36290400       0.00002189      -0.00001184      -0.00000354
Si       5.43322188      13.57637763       2.72321199      -0.00000879       0.00002322       0.00000277
Si       6.79243947      14.92398509       4.08721684       0.00001084      -0.00001717      -0.00000084
Si       8.14706960      10.86011087       2.71956160       0.00002084       0.00000611       0.00000312
Si       9.50229069      12.22027317       4.07818330       0.00000720       0.00000086       0.00002096
Si       8.14747925      13.58172258       0.00657761       0.00001077      -0.00000466      -0.00000736
Si       9.50528584      14.93618615       1.36171817       0.00000924      -0.00000544      -0.00000959
Si       5.43426893      10.84283169       5.44156959      -0.00000214       0.00000578      -0.00000884
Si       6.79269034      12.15657565       6.82802744       0.00001452       0.00001218      -0.00000886
Si       5.43278576      13.56634659       8.15533451      -0.00001187       0.00000532       0.00000062
Si       6.78727812      14.93362139       9.51158568       0.00000703      -0.00000701      -0.00000455
Si       8.16272002      10.80382020       8.22067065      -0.00001894      -0.00000230      -0.00000306
Si       9.51365112      12.21069376       9.52334611       0.00003576       0.00002215       0.00001148
Si       8.13735963      13.55203507       5.45694479      -0.00003925      -0.00000485       0.00000406
Si       9.50169101      14.92544722       6.79598462      -0.00000147      -0.00000988      -0.00000038
Si       5.30174023      11.01428518      11.01428518       0.00006382      -0.00000080      -0.00000080
Si       6.79630464      12.26953348      12.26953348       0.00000261       0.00000406       0.00000406
Si       5.42424258      13.60969269      13.60969269       0.00000509      -0.00000373      -0.00000373
Si       6.79258836      14.95225173      14.95225173      -0.00000071       0.00000089       0.00000089
Si       8.15371490      10.86962383      13.58313923       0.00000750       0.00000284       0.00001486
Si       9.50789329      12.22755118      14.94160677       0.00001552      -0.00000938      -0.00000694
Si       8.15371490      13.58313923      10.86962383       0.00000750       0.00001486       0.00000284
Si       9.50789329      14.94160677      12.22755118       0.00001552      -0.00000694      -0.00000938
Si      10.86036830       0.00347219       0.00347219      -0.00001005       0.00001972       0.00001972
Si      12.22346971       1.35673397       1.35673397      -0.00000981      -0.00001610      -0.00001610
Si      10.86638761       2.71015429       2.71015429       0.00000025      -0.00001256      -0.00001256
Si      12.23355836       4.06333874       4.06333874      -0.00001594      -0.00002445      -0.00002445
Si      13.57832592       0.00136767       2.71848236       0.00003135       0.00001722      -0.00002026
Si      14.94172556       1.35663192       4.07187190       0.00000633      -0.00000008      -0.00000161
Si      13.57832592       2.71848236       0.00136767       0.00003135      -0.00002026       0.00001722
Si      14.94172556       4.07187190       1.35663192       0.00000633      -0.00000161      -0.00000008
Si      10.86160922      -0.01071716       5.43374091      -0.00000161       0.00000601       0.00002621
Si      12.23238268       1.34268585       6.78455024       0.00000090      -0.00001281      -0.00000934
Si      10.88971184       2.68941668       8.15033941       0.00001245      -0.00000192       0.00001778
Si      12.23498255       4.06381961       9.50788082      -0.00001079       0.00000180       0.00000678
Si      13.58120965      -0.00278705       8.15196140      -0.00002396      -0.00000362       0.00000194
Si      14.93518107       1.35871621       9.50823888      -0.00002984      -0.00002951      -0.00002633
Si      13.58504174       2.70857172       5.42832181       0.00000364       0.00000326      -0.00000833
Si      14.94335984       4.06498616       6.78557764      -0.00000755      -0.00001669      -0.00001204
Si      10.86490482       0.00212387      10.86959677       0.00000646       0.00000169       0.00000455
Si      12.21983482       1.36131957      12.22574174       0.00001301      -0.00000588       0.00001052
Si      10.85990483       2.71985597      13.57885152      -0.00001312       0.00000500      -0.00000474
Si      12.22075117       4.07452466      14.93402563       0.00001092      -0.00001488      -0.00000144
Si      13.57608924       0.00762155      13.58584674       0.00000823       0.00000559       0.00002349
Si      14.93675317       1.36289718      14.94095248       0.00001931      -0.00001206       0.00000591
Si      13.58314034       2.71258960      10.87007220      -0.00000147       0.00001055      -0.00000553
Si      14.93449978       4.07308885      12.22775937      -0.00000276      -0.00001125       0.00000113
Si      10.86160922       5.43374091      -0.01071716      -0.00000161       0.00002621       0.00000601
Si      12.23238268       6.78455024       1.34268585       0.00000090      -0.00000934      -0.00001281
Si      10.88971184       8.15033941       2.68941668       0.00001245       0.00001778      -0.00000192
Si      12.23498255       9.50788082       4.06381961      -0.00001079       0.00000678       0.00000180
Si      13.58504174       5.42832181       2.70857172       0.00000364      -0.00000833       0.00000326
Si      14.94335984       6.78557764       4.06498616      -0.00000755      -0.00001204      -0.00001669
Si      13.58120965       8.15196140      -0.00278705      -0.00002396       0.00000194      -0.00000362
Si      14.93518107       9.50823888       1.35871621      -0.00002984      -0.00002633      -0.00002951
Si      10.88293031       5.41960887       5.41960887       0.00000482      -0.00000379      -0.00000379
Si      12.24948430       6.77024064       6.77024064      -0.00001151      -0.00000447      -0.00000447
Si      10.91390758       8.12254865       8.12254865      -0.00003514      -0.00000804      -0.00000804
Si      12.22802366       9.49985846       9.49985846       0.00000686      -0.00000047      -0.00000047
Si      13.59357555       5.41940689       8.14569519      -0.00000432      -0.00001301       0.00000240
Si      14.93765418       6.78665658       9.50984974      -0.00000097      -0.00000134      -0.00000027
Si      13.59357555       8.14569519       5.41940689      -0.00000432       0.00000240      -0.00001301
Si      14.93765418       9.50984974       6.78665658      -0.00000097      -0.00000027      -0.00000134
Si      10.88389150       5.42634132      10.87566414      -0.00001186      -0.00000021       0.00000252
Si      12.22900928       6.79761776      12.22789768       0.00000149      -0.00001393      -0.00000423
Si      10.86107072       8.15747084      13.57425081       0.00000742      -0.00000184       0.00002121
Si      12.21996228       9.51059172      14.93750024       0.00001794      -0.00001368      -0.00001779
Si      13.58006625       5.43393735      13.58340413       0.00000072       0.00000476      -0.00001036
Si      14.93484973       6.78893737      14.94294320       0.00000030      -0.00001013      -0.00001064
Si      13.58522920       8.15136608      10.86797629      -0.00001216       0.00000458       0.00000952
Si      14.93232431       9.51205110      12.23209960       0.00000287       0.00000755      -0.00000201
Si      10.86490482      10.86959677       0.00212387       0.00000646       0.00000455       0.00000169
Si      12.21983482      12.22574174       1.36131957       0.00001301       0.00001052      -0.00000588
Si      10.85990483      13.57885152       2.71985597      -0.00001312      -0.00000474       0.00000500
Si      12.22075117      14.93402563       4.07452466       0.00001092      -0.00000144      -0.00001488
Si      13.58314034      10.87007220       2.71258960      -0.00000147      -0.00000553       0.00001055
Si      14.93449978      12.22775937       4.07308885      -0.00000276       0.00000113      -0.00001125
Si      13.57608924      13.58584674       0.00762155       0.00000823       0.00002349       0.00000559
Si      14.93675317      14.94095248       1.36289718       0.00001931       0.00000591      -0.00001206
Si      10.88389150      10.87566414       5.42634132      -0.00001186       0.00000252      -0.00000021
Si      12.22900928      12.22789768       6.79761776       0.00000149      -0.00000423      -0.00001393
Si      10.86107072      13.57425081       8.15747084       0.00000742       0.00002121      -0.00000184
Si      12.21996228      14.93750024       9.51059172       0.00001794      -0.00001779      -0.00001368
Si      13.58522920      10.86797629       8.15136608      -0.00001216       0.00000952       0.00000458
Si      14.93232431      12.23209960       9.51205110       0.00000287      -0.00000201       0.00000755
Si      13.58006625      13.58340413       5.43393735       0.00000072      -0.00001036       0.00000476
Si      14.93484973      14.94294320       6.78893737       0.00000030      -0.00001064      -0.00001013
Si      10.88450500      10.86761038      10.86761038      -0.00002170      -0.00000338      -0.00000338
Si      12.22932696      12.23115025      12.23115025      -0.00000218      -0.00000657      -0.00000657
Si      10.86529897      13.58504139      13.58504139       0.00000766       0.00000963       0.00000963
Si      12.21985453      14.94200187      14.94200187      -0.00002051       0.00001567       0.00001567
Si      13.57937372      10.87153114      13.58833841      -0.00001592       0.00000473       0.00002031
Si      14.93336340      12.22901447      14.94707853       0.00000474       0.00000479       0.00000080
Si      13.57937372      13.58833841      10.87153114      -0.00001592       0.00002031       0.00000473
Si      14.93336340      14.94707853      12.22901447       0.00000474       0.00000080       0.00000479
B        6.95220615       7.93475670       7.93475670      -0.00008254       0.00002078       0.00002078
B        8.01994524       8.86160837       8.86160837       0.00000110       0.00000193       0.00000193
