217
Lattice="16.293 0.0 0.0 0.0 16.293 0.0 0.0 0.0 16.293" Properties=species:S:1:pos:R:3:forces:R:3 energy=-1166.9683115125404 free_energy=-1166.9683115125404 pbc="T T T"
Si       0.00463337       0.00000000       0.00000000      -0.00001429      -0.00000000      -0.00000000
Si       1.36152574       1.35839144       1.35839144      -0.00000166       0.00000333       0.00000333
Si       0.00359524       2.71549163       2.71549163      -0.00001490       0.00000087       0.00000087
Si       1.35925467       4.07427817       4.07427817       0.00001563      -0.00001541      -0.00001541
Si       2.72010042       0.00329450       2.71559782      -0.00001445      -0.00000640       0.00001172
Si       4.07475130       1.36233774       4.07669289       0.00000569      -0.00000423       0.00001909
Si       2.72010042       2.71559782       0.00329450      -0.00001445       0.00001172      -0.00000640
Si       4.07475130       4.07669289       1.36233774       0.00000569       0.00001909      -0.00000423
Si       0.00265720       0.00352808       5.42809245       0.00000155       0.00001600      -0.00000480
Si       1.36005326       1.35832568       6.78822944       0.00002001      -0.00002215       0.00000033
Si      -0.00837731       2.70517452       8.14548664      -0.00000379       0.00000486      -0.00002489
Si       1.33635852       4.05441829       9.51223388       0.00003891      -0.00000557       0.00000929
Si       2.71702553      -0.00000000       8.14650000       0.00000384      -0.00000000       0.00000000
Si       4.07327946       1.35801893       9.50563207       0.00003281       0.00000942      -0.00002518
Si       2.71970834       2.72174992       5.43606414       0.00000279      -0.00000408       0.00000286
Si       4.07307999       4.08448902       6.80237403       0.00001647      -0.00001819       0.00001881
Si       0.00265720      -0.00352808      10.86490755       0.00000155      -0.00001600       0.00000480
Si       1.35926829       1.35306513      12.22387197      -0.00000391      -0.00000474      -0.00001955
Si       0.00234715       2.71036804      13.58263196      -0.00000670       0.00000576      -0.00000576
Si       1.35926829       4.06912803      14.93993487      -0.00000391       0.00001955       0.00000474
Si       2.72010042      -0.00329450      13.57740218      -0.00001445       0.00000640      -0.00001172
Si       4.07519617       1.35666702      14.93633298      -0.00002090       0.00000419      -0.00000419
Si       2.71353186       2.71135810      10.86656273       0.00000373      -0.00000147      -0.00000987
Si       4.07565411       4.07165306      12.22134694      -0.00000403       0.00002191      -0.00002191
Si       0.00265720       5.42809245       0.00352808       0.00000155      -0.00000480       0.00001600
Si       1.36005326       6.78822944       1.35832568       0.00002001       0.00000033      -0.00002215
Si      -0.00837731       8.14548664       2.70517452      -0.00000379      -0.00002489       0.00000486
Si       1.33635852       9.51223388       4.05441829       0.00003891       0.00000929      -0.00000557
Si       2.71970834       5.43606414       2.72174992       0.00000279       0.00000286      -0.00000408
Si       4.07307999       6.80237403       4.08448902       0.00001647       0.00001881      -0.00001819
Si       2.71702553       8.14650000      -0.00000000       0.00000384      -0.00000000      -0.00000000
Si       4.07327946       9.50563207       1.35801893       0.00003281      -0.00002518       0.00000942
Si      -0.00823479       5.42663136       5.42663136      -0.00000445       0.00001454       0.00001454
Si       1.33782421       6.78726028       6.78726028       0.00000372       0.00000748       0.00000748
Si      -0.01435534       8.14650000       8.14650000      -0.00003097       0.00000000      -0.00000000
Si       1.33782421       9.50573972       9.50573972       0.00000372      -0.00000748      -0.00000748
Si       2.67337534       5.40747864       8.15046639      -0.00000589      -0.00000805       0.00000253
Si       3.96509688       6.72815882       9.56484118      -0.00002744      -0.00000084       0.00000084
Si       2.67337534       8.15046639       5.40747864      -0.00000589       0.00000253      -0.00000805
Si       3.96509688       9.56484118       6.72815882      -0.00002744       0.00000084      -0.00000084
Si      -0.01085629       5.42294864      10.87005136      -0.00001243       0.00000708      -0.00000708
Si       1.33635852       6.78076612      12.23858171       0.00003891      -0.00000929       0.00000557
Si      -0.00837731       8.14751336      13.58782548      -0.00000379       0.00002489      -0.00000486
Si       1.36005326       9.50477056      14.93467432       0.00002001      -0.00000033       0.00002215
Si       2.71353186       5.42643727      13.58164190       0.00000373       0.00000987       0.00000147
Si       4.07327946       6.78736793      14.93498107       0.00003281       0.00002518      -0.00000942
Si       2.67337534       8.14253361      10.88552136      -0.00000589      -0.00000253       0.00000805
Si       4.07307999       9.49062597      12.20851098       0.00001647      -0.00001881       0.00001819
Si       0.00265720      10.86490755      -0.00352808       0.00000155       0.00000480      -0.00001600
Si       1.35926829      12.22387197       1.35306513      -0.00000391      -0.00001955      -0.00000474
Si       0.00234715      13.58263196       2.71036804      -0.00000670      -0.00000576       0.00000576
Si       1.35926829      14.93993487       4.06912803      -0.00000391       0.00000474       0.00001955
Si       2.71353186      10.86656273       2.71135810       0.00000373      -0.00000987      -0.00000147
Si       4.07565411      12.22134694       4.07165306      -0.00000403      -0.00002191       0.00002191
Si       2.72010042      13.57740218      -0.00329450      -0.00001445      -0.00001172       0.00000640
Si       4.07519617      14.93633298       1.35666702      -0.00002090      -0.00000419       0.00000419
Si      -0.01085629      10.87005136       5.42294864      -0.00001243      -0.00000708       0.00000708
Si       1.33635852      12.23858171       6.78076612       0.00003891       0.00000557      -0.00000929
Si      -0.00837731      13.58782548       8.14751336      -0.00000379      -0.00000486       0.00002489
Si       1.36005326      14.93467432       9.50477056       0.00002001       0.00002215      -0.00000033
Si       2.67337534      10.88552136       8.14253361      -0.00000589       0.00000805      -0.00000253
Si       4.07307999      12.20851098       9.49062597       0.00001647       0.00001819      -0.00001881
Si       2.71353186      13.58164190       5.42643727       0.00000373       0.00000147       0.00000987
Si       4.07327946      14.93498107       6.78736793       0.00003281      -0.00000942       0.00002518
Si      -0.00823479      10.86636864      10.86636864      -0.00000445      -0.00001454      -0.00001454
Si       1.35925467      12.21872183      12.21872183       0.00001563       0.00001541       0.00001541
Si       0.00359524      13.57750837      13.57750837      -0.00001490      -0.00000087      -0.00000087
Si       1.36152574      14.93460856      14.93460856      -0.00000166      -0.00000333      -0.00000333
Si       2.71970834      10.85693586      13.57125008       0.00000279      -0.00000286       0.00000408
Si       4.07475130      12.21630711      14.93066226       0.00000569      -0.00001909       0.00000423
Si       2.71970834      13.57125008      10.85693586       0.00000279       0.00000408      -0.00000286
Si       4.07475130      14.93066226      12.21630711       0.00000569       0.00000423      -0.00001909
Si       5.43250862      -0.00000000       0.00000000      -0.00003180       0.00000000      -0.00000000
Si       6.78542066       1.36146079       1.36146079       0.00004272       0.00000023       0.00000023
Si       5.43314566       2.72463475       2.72463475      -0.00001696      -0.00000346      -0.00000346
Si       6.78053113       4.09203292       4.09203292       0.00000433      -0.00000293      -0.00000293
Si       8.14392312       0.00169205       2.71477189       0.00000617      -0.00002128       0.00000278
Si       9.50160044       1.35903717       4.07109475       0.00000227       0.00000071      -0.00002144
Si       8.14392312       2.71477189       0.00169205       0.00000617       0.00000278      -0.00002128
Si       9.50160044       4.07109475       1.35903717       0.00000227      -0.00002144       0.00000071
Si       5.43117855       0.00215312       5.43251050      -0.00001279      -0.00000684      -0.00000902
Si       6.78828620       1.35982653       6.79076620      -0.00000251       0.00000420      -0.00000720
Si       5.43337541       2.72059319       8.15185291      -0.00000995       0.00000158      -0.00000942
Si       6.79784268       4.07802756       9.50239390      -0.00000238      -0.00001176       0.00000460
Si       8.14692741       0.00000000       8.14650000       0.00000582      -0.00000000      -0.00000000
Si       9.50575532       1.35404722       9.50735837       0.00001313      -0.00000181       0.00001557
Si       8.14566249       2.71714148       5.43080990      -0.00001090      -0.00001369       0.00000072
Si       9.52479263       4.05700952       6.78413739       0.00000654       0.00000537      -0.00002388
Si       5.43117855      -0.00215312      10.86048950      -0.00001279       0.00000684       0.00000902
Si       6.78786908       1.35587684      12.22004344       0.00002911      -0.00001102       0.00000629
Si       5.43120482       2.71410717      13.57889283      -0.00003620      -0.00000552       0.00000552
Si       6.78786908       4.07295656      14.93712316       0.00002911      -0.00000629       0.00001102
Si       8.14392312      -0.00169205      13.57822811       0.00000617       0.00002128      -0.00000278
Si       9.50057309       1.35554707      14.93745293      -0.00001962      -0.00000453       0.00000453
Si       8.14708941       2.71391465      10.86451725      -0.00001994       0.00000440      -0.00001430
Si       9.50780579       4.06685405      12.22614595       0.00000418       0.00000834      -0.00000834
Si       5.43117855       5.43251050       0.00215312      -0.00001279      -0.00000902      -0.00000684
Si       6.78828620       6.79076620       1.35982653      -0.00000251      -0.00000720       0.00000420
Si       5.43337541       8.15185291       2.72059319      -0.00000995      -0.00000942       0.00000158
Si       6.79784268       9.50239390       4.07802756      -0.00000238       0.00000460      -0.00001176
Si       8.14566249       5.43080990       2.71714148      -0.00001090       0.00000072      -0.00001369
Si       9.52479263       6.78413739       4.05700952       0.00000654      -0.00002388       0.00000537
Si       8.14692741       8.14650000       0.00000000       0.00000582      -0.00000000      -0.00000000
Si       9.50575532       9.50735837       1.35404722       0.00001313       0.00001557      -0.00000181
Si       5.42997622       5.46638271       5.46638271      -0.00003278      -0.00001155      -0.00001155
Si       6.89881530       6.79224927       6.79224927       0.00003546       0.00001861       0.00001861
Si       5.06104227       8.14650000       8.14650000      -0.00008459       0.00000000      -0.00000000
Si       6.89881530       9.50075073       9.50075073       0.00003546      -0.00001861      -0.00001861
Si       8.19750046       5.39388919       8.15777957      -0.00002372       0.00001102       0.00001036
Si       9.53674979       6.77501508       9.51798492      -0.00000734       0.00001752      -0.00001752
Si       8.19750046       8.15777957       5.39388919      -0.00002372       0.00001036       0.00001102
Si       9.53674979       9.51798492       6.77501508      -0.00000734      -0.00001752       0.00001752
Si       5.43448984       5.43288701      10.86011299      -0.00002958       0.00001048      -0.00001048
Si       6.79784268       6.79060610      12.21497244      -0.00000238      -0.00000460       0.00001176
Si       5.43337541       8.14114709      13.57240681      -0.00000995       0.00000942      -0.00000158
Si       6.78828620       9.50223380      14.93317347      -0.00000251       0.00000720      -0.00000420
Si       8.14708941       5.42848275      13.57908535      -0.00001994       0.00001430      -0.00000440
Si       9.50575532       6.78564163      14.93895278       0.00001313      -0.00001557       0.00000181
Si       8.19750046       8.13522043      10.89911081      -0.00002372      -0.00001036      -0.00001102
Si       9.52479263       9.50886261      12.23599048       0.00000654       0.00002388      -0.00000537
Si       5.43117855      10.86048950      -0.00215312      -0.00001279       0.00000902       0.00000684
Si       6.78786908      12.22004344       1.35587684       0.00002911       0.00000629      -0.00001102
Si       5.43120482      13.57889283       2.71410717      -0.00003620       0.00000552      -0.00000552
Si       6.78786908      14.93712316       4.07295656       0.00002911       0.00001102      -0.00000629
Si       8.14708941      10.86451725       2.71391465      -0.00001994      -0.00001430       0.00000440
Si       9.50780579      12.22614595       4.06685405       0.00000418      -0.00000834       0.00000834
Si       8.14392312      13.57822811      -0.00169205       0.00000617      -0.00000278       0.00002128
Si       9.50057309      14.93745293       1.35554707      -0.00001962       0.00000453      -0.00000453
Si       5.43448984      10.86011299       5.43288701      -0.00002958      -0.00001048       0.00001048
Si       6.79784268      12.21497244       6.79060610      -0.00000238       0.00001176      -0.00000460
Si       5.43337541      13.57240681       8.14114709      -0.00000995      -0.00000158       0.00000942
Si       6.78828620      14.93317347       9.50223380      -0.00000251      -0.00000420       0.00000720
Si       8.19750046      10.89911081       8.13522043      -0.00002372      -0.00001102      -0.00001036
Si       9.52479263      12.23599048       9.50886261       0.00000654      -0.00000537       0.00002388
Si       8.14708941      13.57908535       5.42848275      -0.00001994      -0.00000440       0.00001430
Si       9.50575532      14.93895278       6.78564163       0.00001313       0.00000181      -0.00001557
Si       5.42997622      10.82661729      10.82661729      -0.00003278       0.00001155       0.00001155
Si       6.78053113      12.20096708      12.20096708       0.00000433       0.00000293       0.00000293
Si       5.43314566      13.56836525      13.56836525      -0.00001696       0.00000346       0.00000346
Si       6.78542066      14.93153921      14.93153921       0.00004272      -0.00000023      -0.00000023
Si       8.14566249      10.86219010      13.57585852      -0.00001090      -0.00000072       0.00001369
Si       9.50160044      12.22190525      14.93396283       0.00000227       0.00002144      -0.00000071
Si       8.14566249      13.57585852      10.86219010      -0.00001090       0.00001369      -0.00000072
Si       9.50160044      14.93396283      12.22190525       0.00000227      -0.00000071       0.00002144
Si      10.86013716      -0.00000000       0.00000000       0.00000636       0.00000000       0.00000000
Si      12.21842663       1.35732857       1.35732857       0.00002709       0.00002307       0.00002307
Si      10.86110342       2.71491663       2.71491663       0.00001650      -0.00001485      -0.00001485
Si      12.22054267       4.07178958       4.07178958       0.00000229       0.00000703       0.00000703
Si      13.57883469       0.00219038       2.71252724       0.00000346       0.00000471       0.00000531
Si      14.93709772       1.35851778       4.07043249       0.00001165       0.00000953       0.00001274
Si      13.57883469       2.71252724       0.00219038       0.00000346       0.00000531       0.00000471
Si      14.93709772       4.07043249       1.35851778       0.00001165       0.00001274       0.00000953
Si      10.86158756       0.00191148       5.42709148      -0.00001156       0.00000487      -0.00001852
Si      12.22372874       1.35304326       6.78590357       0.00000195       0.00000013      -0.00002064
Si      10.87244796       2.70382120       8.14929237      -0.00003059       0.00000730      -0.00000987
Si      12.23052236       4.06164769       9.50835727       0.00001907       0.00001991       0.00000744
Si      13.57896544      -0.00000000       8.14650000      -0.00000646       0.00000000      -0.00000000
Si      14.93510094       1.35030368       9.50766068       0.00002456      -0.00000522       0.00000541
Si      13.57732178       2.71278834       5.42778633       0.00000184      -0.00000652      -0.00000266
Si      14.93216431       4.06796959       6.78703428       0.00000806       0.00000957      -0.00000052
Si      10.86158756      -0.00191148      10.86590852      -0.00001156      -0.00000487       0.00001852
Si      12.21949476       1.35328089      12.22465331       0.00001214       0.00001113      -0.00001512
Si      10.86230635       2.70988199      13.58311801      -0.00000660      -0.00001730       0.00001730
Si      12.21949476       4.06834669      14.93971911       0.00001214       0.00001512      -0.00001113
Si      13.57883469      -0.00219038      13.58047276       0.00000346      -0.00000471      -0.00000531
Si      14.93655167       1.35476114      14.93823886       0.00000701      -0.00000709       0.00000709
Si      13.58106132       2.70590558      10.86822438       0.00000454       0.00000518      -0.00000480
Si      14.93279351       4.06465608      12.22834392      -0.00001253       0.00000158      -0.00000158
Si      10.86158756       5.42709148       0.00191148      -0.00001156      -0.00001852       0.00000487
Si      12.22372874       6.78590357       1.35304326       0.00000195      -0.00002064       0.00000013
Si      10.87244796       8.14929237       2.70382120      -0.00003059      -0.00000987       0.00000730
Si      12.23052236       9.50835727       4.06164769       0.00001907       0.00000744       0.00001991
Si      13.57732178       5.42778633       2.71278834       0.00000184      -0.00000266      -0.00000652
Si      14.93216431       6.78703428       4.06796959       0.00000806      -0.00000052       0.00000957
Si      13.57896544       8.14650000      -0.00000000      -0.00000646       0.00000000      -0.00000000
Si      14.93510094       9.50766068       1.35030368       0.00002456       0.00000541      -0.00000522
Si      10.86760729       5.43178636       5.43178636      -0.00001440      -0.00000112      -0.00000112
Si      12.22332372       6.78880678       6.78880678      -0.00001014       0.00001635       0.00001635
Si      10.86792592       8.14650000       8.14650000      -0.00002340       0.00000000       0.00000000
Si      12.22332372       9.50419322       9.50419322      -0.00001014      -0.00001635      -0.00001635
Si      13.57856833       5.42572267       8.14681576      -0.00001527       0.00000552      -0.00001071
Si      14.93075814       6.78425175       9.50874825       0.00002474       0.00000936      -0.00000936
Si      13.57856833       8.14681576       5.42572267      -0.00001527      -0.00001071       0.00000552
Si      14.93075814       9.50874825       6.78425175       0.00002474      -0.00000936       0.00000936
Si      10.88488416       5.41581751      10.87718249      -0.00002280       0.00000420      -0.00000420
Si      12.23052236       6.78464273      12.23135231       0.00001907      -0.00000744      -0.00001991
Si      10.87244796       8.14370763      13.58917880      -0.00003059       0.00000987      -0.00000730
Si      12.22372874       9.50709643      14.93995674       0.00000195       0.00002064      -0.00000013
Si      13.58106132       5.42477562      13.58709442       0.00000454       0.00000480      -0.00000518
Si      14.93510094       6.78533932      14.94269632       0.00002456      -0.00000541       0.00000522
Si      13.57856833       8.14618424      10.86727733      -0.00001527       0.00001071      -0.00000552
Si      14.93216431       9.50596572      12.22503041       0.00000806       0.00000052      -0.00000957
Si      10.86158756      10.86590852      -0.00191148      -0.00001156       0.00001852      -0.00000487
Si      12.21949476      12.22465331       1.35328089       0.00001214      -0.00001512       0.00001113
Si      10.86230635      13.58311801       2.70988199      -0.00000660       0.00001730      -0.00001730
Si      12.21949476      14.93971911       4.06834669       0.00001214      -0.00001113       0.00001512
Si      13.58106132      10.86822438       2.70590558       0.00000454      -0.00000480       0.00000518
Si      14.93279351      12.22834392       4.06465608      -0.00001253      -0.00000158       0.00000158
Si      13.57883469      13.58047276      -0.00219038       0.00000346      -0.00000531      -0.00000471
Si      14.93655167      14.93823886       1.35476114       0.00000701       0.00000709      -0.00000709
Si      10.88488416      10.87718249       5.41581751      -0.00002280      -0.00000420       0.00000420
Si      12.23052236      12.23135231       6.78464273       0.00001907      -0.00001991      -0.00000744
Si      10.87244796      13.58917880       8.14370763      -0.00003059      -0.00000730       0.00000987
Si      12.22372874      14.93995674       9.50709643       0.00000195      -0.00000013       0.00002064
Si      13.57856833      10.86727733       8.14618424      -0.00001527      -0.00000552       0.00001071
Si      14.93216431      12.22503041       9.50596572       0.00000806      -0.00000957       0.00000052
Si      13.58106132      13.58709442       5.42477562       0.00000454      -0.00000518       0.00000480
Si      14.93510094      14.94269632       6.78533932       0.00002456       0.00000522      -0.00000541
Si      10.86760729      10.86121364      10.86121364      -0.00001440       0.00000112       0.00000112
Si      12.22054267      12.22121042      12.22121042       0.00000229      -0.00000703      -0.00000703
Si      10.86110342      13.57808337      13.57808337       0.00001650       0.00001485       0.00001485
Si      12.21842663      14.93567143      14.93567143       0.00002709      -0.00002307      -0.00002307
Si      13.57732178      10.86521367      13.58021166       0.00000184       0.00000266       0.00000652
Si      14.93709772      12.22256751      14.93448222       0.00001165      -0.00001274      -0.00000953
Si      13.57732178      13.58021166      10.86521367       0.00000184       0.00000652       0.00000266
Si      14.93709772      14.93448222      12.22256751       0.00001165      -0.00000953      -0.00001274
B        6.89882379       8.14650000       8.14650000       0.00001286      -0.00000000      -0.00000000
