217
Lattice="16.293 0.0 0.0 0.0 16.293 0.0 0.0 0.0 16.293" Properties=species:S:1:pos:R:3:forces:R:3 energy=-1161.5130791599934 free_energy=-1161.5130791599934 pbc="T T T"
Si       0.00000000       0.00000000       0.00000000      -0.00030494       0.00000000       0.00000000
Si       1.35775000       1.35775000       1.35775000       0.00019118       0.00011772       0.00011772
Si       0.00000000       2.71550000       2.71550000       0.00055745       0.00178795       0.00178795
Si       1.35775000       4.07325000       4.07325000      -0.00451896      -0.00307771      -0.00307771
Si       2.71550000       0.00000000       2.71550000       0.00122890      -0.00006144       0.00011047
Si       4.07325000       1.35775000       4.07325000      -0.00306220      -0.00168585      -0.00056582
Si       2.71550000       2.71550000       0.00000000       0.00122890       0.00011047      -0.00006144
Si       4.07325000       4.07325000       1.35775000      -0.00306220      -0.00056582      -0.00168585
Si       0.00000000       0.00000000       5.43100000      -0.00144170       0.00017146       0.00005940
Si       1.35775000       1.35775000       6.78875000       0.00068667      -0.00010573      -0.00299741
Si       0.00000000       2.71550000       8.14650000       0.00041791       0.00046306       0.00344452
Si       1.35775000       4.07325000       9.50425000      -0.01257015      -0.01648144      -0.00065290
Si       2.71550000       0.00000000       8.14650000       0.00070216       0.00000000       0.00000000
Si       4.07325000       1.35775000       9.50425000      -0.01163658      -0.01077494       0.00238743
Si       2.71550000       2.71550000       5.43100000      -0.01379783      -0.01382199      -0.00336303
Si       4.07325000       4.07325000       6.78875000       0.05122218       0.01888927      -0.00826115
Si       0.00000000       0.00000000      10.86200000      -0.00144170      -0.00017146      -0.00005940
Si       1.35775000       1.35775000      12.21975000       0.00153754       0.00027259      -0.00380164
Si       0.00000000       2.71550000      13.57750000      -0.00021206      -0.00069057       0.00069057
Si       1.35775000       4.07325000      14.93525000       0.00153754       0.00380164      -0.00027259
Si       2.71550000       0.00000000      13.57750000       0.00122890       0.00006144      -0.00011047
Si       4.07325000       1.35775000      14.93525000       0.00288652      -0.00049434       0.00049434
Si       2.71550000       2.71550000      10.86200000      -0.00139044       0.00042399       0.00320078
Si       4.07325000       4.07325000      12.21975000      -0.02271292      -0.01404877       0.01404877
Si       0.00000000       5.43100000       0.00000000      -0.00144170       0.00005940       0.00017146
Si       1.35775000       6.78875000       1.35775000       0.00068667      -0.00299741      -0.00010573
Si       0.00000000       8.14650000       2.71550000       0.00041791       0.00344452       0.00046306
Si       1.35775000       9.50425000       4.07325000      -0.01257015      -0.00065290      -0.01648144
Si       2.71550000       5.43100000       2.71550000      -0.01379783      -0.00336303      -0.01382199
Si       4.07325000       6.78875000       4.07325000       0.05122218      -0.00826115       0.01888927
Si       2.71550000       8.14650000       0.00000000       0.00070216       0.00000000       0.00000000
Si       4.07325000       9.50425000       1.35775000      -0.01163658       0.00238743      -0.01077494
Si       0.00000000       5.43100000       5.43100000      -0.00702175      -0.01022949      -0.01022949
Si       1.35775000       6.78875000       6.78875000      -0.00985937       0.00126905       0.00126905
Si       0.00000000       8.14650000       8.14650000      -0.01676104       0.00000000       0.00000000
Si       1.35775000       9.50425000       9.50425000      -0.00985937      -0.00126905      -0.00126905
Si       2.71550000       5.43100000       8.14650000       0.04956356       0.04844675      -0.01580225
Si       4.07325000       6.78875000       9.50425000      -0.01549384       0.11967385      -0.11967385
Si       2.71550000       8.14650000       5.43100000       0.04956356      -0.01580225       0.04844675
Si       4.07325000       9.50425000       6.78875000      -0.01549384      -0.11967385       0.11967385
Si       0.00000000       5.43100000      10.86200000      -0.00553106      -0.00448885       0.00448885
Si       1.35775000       6.78875000      12.21975000      -0.01257015       0.00065290       0.01648144
Si       0.00000000       8.14650000      13.57750000       0.00041791      -0.00344452      -0.00046306
Si       1.35775000       9.50425000      14.93525000       0.00068667       0.00299741       0.00010573
Si       2.71550000       5.43100000      13.57750000      -0.00139044      -0.00320078      -0.00042399
Si       4.07325000       6.78875000      14.93525000      -0.01163658      -0.00238743       0.01077494
Si       2.71550000       8.14650000      10.86200000       0.04956356       0.01580225      -0.04844675
Si       4.07325000       9.50425000      12.21975000       0.05122218       0.00826115      -0.01888927
Si       0.00000000      10.86200000       0.00000000      -0.00144170      -0.00005940      -0.00017146
Si       1.35775000      12.21975000       1.35775000       0.00153754      -0.00380164       0.00027259
Si       0.00000000      13.57750000       2.71550000      -0.00021206       0.00069057      -0.00069057
Si       1.35775000      14.93525000       4.07325000       0.00153754      -0.00027259       0.00380164
Si       2.71550000      10.86200000       2.71550000      -0.00139044       0.00320078       0.00042399
Si       4.07325000      12.21975000       4.07325000      -0.02271292       0.01404877      -0.01404877
Si       2.71550000      13.57750000       0.00000000       0.00122890      -0.00011047       0.00006144
Si       4.07325000      14.93525000       1.35775000       0.00288652       0.00049434      -0.00049434
Si       0.00000000      10.86200000       5.43100000      -0.00553106       0.00448885      -0.00448885
Si       1.35775000      12.21975000       6.78875000      -0.01257015       0.01648144       0.00065290
Si       0.00000000      13.57750000       8.14650000       0.00041791      -0.00046306      -0.00344452
Si       1.35775000      14.93525000       9.50425000       0.00068667       0.00010573       0.00299741
Si       2.71550000      10.86200000       8.14650000       0.04956356      -0.04844675       0.01580225
Si       4.07325000      12.21975000       9.50425000       0.05122218      -0.01888927       0.00826115
Si       2.71550000      13.57750000       5.43100000      -0.00139044      -0.00042399      -0.00320078
Si       4.07325000      14.93525000       6.78875000      -0.01163658       0.01077494      -0.00238743
Si       0.00000000      10.86200000      10.86200000      -0.00702175       0.01022949       0.01022949
Si       1.35775000      12.21975000      12.21975000      -0.00451896       0.00307771       0.00307771
Si       0.00000000      13.57750000      13.57750000       0.00055745      -0.00178795      -0.00178795
Si       1.35775000      14.93525000      14.93525000       0.00019118      -0.00011772      -0.00011772
Si       2.71550000      10.86200000      13.57750000      -0.01379783       0.00336303       0.01382199
Si       4.07325000      12.21975000      14.93525000      -0.00306220       0.00056582       0.00168585
Si       2.71550000      13.57750000      10.86200000      -0.01379783       0.01382199       0.00336303
Si       4.07325000      14.93525000      12.21975000      -0.00306220       0.00168585       0.00056582
Si       5.43100000       0.00000000       0.00000000      -0.00129127       0.00000000       0.00000000
Si       6.78875000       1.35775000       1.35775000      -0.00077286      -0.00016075      -0.00016075
Si       5.43100000       2.71550000       2.71550000      -0.00503272      -0.00317912      -0.00317912
Si       6.78875000       4.07325000       4.07325000       0.03094085       0.01004852       0.01004852
Si       8.14650000       0.00000000       2.71550000      -0.00116122       0.00013167      -0.00109924
Si       9.50425000       1.35775000       4.07325000      -0.00004022      -0.00132726      -0.00525473
Si       8.14650000       2.71550000       0.00000000      -0.00116122      -0.00109924       0.00013167
Si       9.50425000       4.07325000       1.35775000      -0.00004022      -0.00525473      -0.00132726
Si       5.43100000       0.00000000       5.43100000      -0.00171365       0.00577581       0.00037767
Si       6.78875000       1.35775000       6.78875000      -0.00956309      -0.01502598      -0.00647124
Si       5.43100000       2.71550000       8.14650000      -0.00618064       0.00261003       0.00647161
Si       6.78875000       4.07325000       9.50425000       0.02723877       0.04007580      -0.00404510
Si       8.14650000       0.00000000       8.14650000       0.00132566       0.00000000       0.00000000
Si       9.50425000       1.35775000       9.50425000       0.00476917      -0.00782466       0.00678317
Si       8.14650000       2.71550000       5.43100000       0.00136775      -0.01014889      -0.01697816
Si       9.50425000       4.07325000       6.78875000      -0.01892187       0.01922420      -0.00929667
Si       5.43100000       0.00000000      10.86200000      -0.00171365      -0.00577581      -0.00037767
Si       6.78875000       1.35775000      12.21975000       0.00569146      -0.00646619       0.00424359
Si       5.43100000       2.71550000      13.57750000      -0.01134791      -0.00124854       0.00124854
Si       6.78875000       4.07325000      14.93525000       0.00569146      -0.00424359       0.00646619
Si       8.14650000       0.00000000      13.57750000      -0.00116122      -0.00013167       0.00109924
Si       9.50425000       1.35775000      14.93525000       0.00031596      -0.00023949       0.00023949
Si       8.14650000       2.71550000      10.86200000       0.00084489      -0.00807071       0.00999034
Si       9.50425000       4.07325000      12.21975000       0.00011562      -0.00740487       0.00740487
Si       5.43100000       5.43100000       0.00000000      -0.00171365       0.00037767       0.00577581
Si       6.78875000       6.78875000       1.35775000      -0.00956309      -0.00647124      -0.01502598
Si       5.43100000       8.14650000       2.71550000      -0.00618064       0.00647161       0.00261003
Si       6.78875000       9.50425000       4.07325000       0.02723877      -0.00404510       0.04007580
Si       8.14650000       5.43100000       2.71550000       0.00136775      -0.01697816      -0.01014889
Si       9.50425000       6.78875000       4.07325000      -0.01892187      -0.00929667       0.01922420
Si       8.14650000       8.14650000       0.00000000       0.00132566       0.00000000       0.00000000
Si       9.50425000       9.50425000       1.35775000       0.00476917       0.00678317      -0.00782466
Si       5.43100000       5.43100000       5.43100000      -0.23452924       0.05344375       0.05344375
Si       6.78875000       6.78875000       6.78875000       0.44196087      -0.23518782      -0.23518782
Si       5.43100000       8.14650000       8.14650000     -30.14791303       0.00000000       0.00000000
Si       6.78875000       9.50425000       9.50425000       0.44196087       0.23518782       0.23518782
Si       8.14650000       5.43100000       8.14650000       0.19689376      -0.30453928      -0.02626117
Si       9.50425000       6.78875000       9.50425000       0.02311810       0.03215837      -0.03215837
Si       8.14650000       8.14650000       5.43100000       0.19689376      -0.02626117      -0.30453928
Si       9.50425000       9.50425000       6.78875000       0.02311810      -0.03215837       0.03215837
Si       5.43100000       5.43100000      10.86200000       0.05681277      -0.04242031       0.04242031
Si       6.78875000       6.78875000      12.21975000       0.02723877       0.00404510      -0.04007580
Si       5.43100000       8.14650000      13.57750000      -0.00618064      -0.00647161      -0.00261003
Si       6.78875000       9.50425000      14.93525000      -0.00956309       0.00647124       0.01502598
Si       8.14650000       5.43100000      13.57750000       0.00084489      -0.00999034       0.00807071
Si       9.50425000       6.78875000      14.93525000       0.00476917      -0.00678317       0.00782466
Si       8.14650000       8.14650000      10.86200000       0.19689376       0.02626117       0.30453928
Si       9.50425000       9.50425000      12.21975000      -0.01892187       0.00929667      -0.01922420
Si       5.43100000      10.86200000       0.00000000      -0.00171365      -0.00037767      -0.00577581
Si       6.78875000      12.21975000       1.35775000       0.00569146       0.00424359      -0.00646619
Si       5.43100000      13.57750000       2.71550000      -0.01134791       0.00124854      -0.00124854
Si       6.78875000      14.93525000       4.07325000       0.00569146       0.00646619      -0.00424359
Si       8.14650000      10.86200000       2.71550000       0.00084489       0.00999034      -0.00807071
Si       9.50425000      12.21975000       4.07325000       0.00011562       0.00740487      -0.00740487
Si       8.14650000      13.57750000       0.00000000      -0.00116122       0.00109924      -0.00013167
Si       9.50425000      14.93525000       1.35775000       0.00031596       0.00023949      -0.00023949
Si       5.43100000      10.86200000       5.43100000       0.05681277       0.04242031      -0.04242031
Si       6.78875000      12.21975000       6.78875000       0.02723877      -0.04007580       0.00404510
Si       5.43100000      13.57750000       8.14650000      -0.00618064      -0.00261003      -0.00647161
Si       6.78875000      14.93525000       9.50425000      -0.00956309       0.01502598       0.00647124
Si       8.14650000      10.86200000       8.14650000       0.19689376       0.30453928       0.02626117
Si       9.50425000      12.21975000       9.50425000      -0.01892187      -0.01922420       0.00929667
Si       8.14650000      13.57750000       5.43100000       0.00084489       0.00807071      -0.00999034
Si       9.50425000      14.93525000       6.78875000       0.00476917       0.00782466      -0.00678317
Si       5.43100000      10.86200000      10.86200000      -0.23452924      -0.05344375      -0.05344375
Si       6.78875000      12.21975000      12.21975000       0.03094085      -0.01004852      -0.01004852
Si       5.43100000      13.57750000      13.57750000      -0.00503272       0.00317912       0.00317912
Si       6.78875000      14.93525000      14.93525000      -0.00077286       0.00016075       0.00016075
Si       8.14650000      10.86200000      13.57750000       0.00136775       0.01697816       0.01014889
Si       9.50425000      12.21975000      14.93525000      -0.00004022       0.00525473       0.00132726
Si       8.14650000      13.57750000      10.86200000       0.00136775       0.01014889       0.01697816
Si       9.50425000      14.93525000      12.21975000      -0.00004022       0.00132726       0.00525473
Si      10.86200000       0.00000000       0.00000000      -0.00100166       0.00000000       0.00000000
Si      12.21975000       1.35775000       1.35775000      -0.00104187       0.00036732       0.00036732
Si      10.86200000       2.71550000       2.71550000       0.00036390      -0.00128732      -0.00128732
Si      12.21975000       4.07325000       4.07325000      -0.00023975      -0.00017378      -0.00017378
Si      13.57750000       0.00000000       2.71550000      -0.00005854       0.00031505       0.00052904
Si      14.93525000       1.35775000       4.07325000      -0.00002321      -0.00068010       0.00030425
Si      13.57750000       2.71550000       0.00000000      -0.00005854       0.00052904       0.00031505
Si      14.93525000       4.07325000       1.35775000      -0.00002321       0.00030425      -0.00068010
Si      10.86200000       0.00000000       5.43100000      -0.00129757      -0.00353897       0.00105770
Si      12.21975000       1.35775000       6.78875000       0.00176310       0.00072067       0.00070030
Si      10.86200000       2.71550000       8.14650000       0.01236639      -0.01599568      -0.00274842
Si      12.21975000       4.07325000       9.50425000       0.01668710      -0.01566475       0.01295927
Si      13.57750000       0.00000000       8.14650000       0.00150159       0.00000000       0.00000000
Si      14.93525000       1.35775000       9.50425000      -0.00042911      -0.00176850      -0.00022192
Si      13.57750000       2.71550000       5.43100000      -0.00108329       0.00113985       0.00038719
Si      14.93525000       4.07325000       6.78875000      -0.00096141       0.00083135      -0.00098768
Si      10.86200000       0.00000000      10.86200000      -0.00129757       0.00353897      -0.00105770
Si      12.21975000       1.35775000      12.21975000       0.00002324       0.00118404      -0.00026855
Si      10.86200000       2.71550000      13.57750000      -0.00371248       0.00110249      -0.00110249
Si      12.21975000       4.07325000      14.93525000       0.00002324       0.00026855      -0.00118404
Si      13.57750000       0.00000000      13.57750000      -0.00005854      -0.00031505      -0.00052904
Si      14.93525000       1.35775000      14.93525000      -0.00058143      -0.00010880       0.00010880
Si      13.57750000       2.71550000      10.86200000       0.00024323      -0.00135168      -0.00223740
Si      14.93525000       4.07325000      12.21975000      -0.00107418       0.00221630      -0.00221630
Si      10.86200000       5.43100000       0.00000000      -0.00129757       0.00105770      -0.00353897
Si      12.21975000       6.78875000       1.35775000       0.00176310       0.00070030       0.00072067
Si      10.86200000       8.14650000       2.71550000       0.01236639      -0.00274842      -0.01599568
Si      12.21975000       9.50425000       4.07325000       0.01668710       0.01295927      -0.01566475
Si      13.57750000       5.43100000       2.71550000      -0.00108329       0.00038719       0.00113985
Si      14.93525000       6.78875000       4.07325000      -0.00096141      -0.00098768       0.00083135
Si      13.57750000       8.14650000       0.00000000       0.00150159       0.00000000       0.00000000
Si      14.93525000       9.50425000       1.35775000      -0.00042911      -0.00022192      -0.00176850
Si      10.86200000       5.43100000       5.43100000      -0.01248996       0.01202194       0.01202194
Si      12.21975000       6.78875000       6.78875000       0.00559104      -0.00982607      -0.00982607
Si      10.86200000       8.14650000       8.14650000      -0.12836839       0.00000000       0.00000000
Si      12.21975000       9.50425000       9.50425000       0.00559104       0.00982607       0.00982607
Si      13.57750000       5.43100000       8.14650000       0.01345556      -0.01067250      -0.00749484
Si      14.93525000       6.78875000       9.50425000       0.00576807      -0.00198175       0.00198175
Si      13.57750000       8.14650000       5.43100000       0.01345556      -0.00749484      -0.01067250
Si      14.93525000       9.50425000       6.78875000       0.00576807       0.00198175      -0.00198175
Si      10.86200000       5.43100000      10.86200000       0.02655113      -0.03615540       0.03615540
Si      12.21975000       6.78875000      12.21975000       0.01668710      -0.01295927       0.01566475
Si      10.86200000       8.14650000      13.57750000       0.01236639       0.00274842       0.01599568
Si      12.21975000       9.50425000      14.93525000       0.00176310      -0.00070030      -0.00072067
Si      13.57750000       5.43100000      13.57750000       0.00024323       0.00223740       0.00135168
Si      14.93525000       6.78875000      14.93525000      -0.00042911       0.00022192       0.00176850
Si      13.57750000       8.14650000      10.86200000       0.01345556       0.00749484       0.01067250
Si      14.93525000       9.50425000      12.21975000      -0.00096141       0.00098768      -0.00083135
Si      10.86200000      10.86200000       0.00000000      -0.00129757      -0.00105770       0.00353897
Si      12.21975000      12.21975000       1.35775000       0.00002324      -0.00026855       0.00118404
Si      10.86200000      13.57750000       2.71550000      -0.00371248      -0.00110249       0.00110249
Si      12.21975000      14.93525000       4.07325000       0.00002324      -0.00118404       0.00026855
Si      13.57750000      10.86200000       2.71550000       0.00024323      -0.00223740      -0.00135168
Si      14.93525000      12.21975000       4.07325000      -0.00107418      -0.00221630       0.00221630
Si      13.57750000      13.57750000       0.00000000      -0.00005854      -0.00052904      -0.00031505
Si      14.93525000      14.93525000       1.35775000      -0.00058143       0.00010880      -0.00010880
Si      10.86200000      10.86200000       5.43100000       0.02655113       0.03615540      -0.03615540
Si      12.21975000      12.21975000       6.78875000       0.01668710       0.01566475      -0.01295927
Si      10.86200000      13.57750000       8.14650000       0.01236639       0.01599568       0.00274842
Si      12.21975000      14.93525000       9.50425000       0.00176310      -0.00072067      -0.00070030
Si      13.57750000      10.86200000       8.14650000       0.01345556       0.01067250       0.00749484
Si      14.93525000      12.21975000       9.50425000      -0.00096141      -0.00083135       0.00098768
Si      13.57750000      13.57750000       5.43100000       0.00024323       0.00135168       0.00223740
Si      14.93525000      14.93525000       6.78875000      -0.00042911       0.00176850       0.00022192
Si      10.86200000      10.86200000      10.86200000      -0.01248996      -0.01202194      -0.01202194
Si      12.21975000      12.21975000      12.21975000      -0.00023975       0.00017378       0.00017378
Si      10.86200000      13.57750000      13.57750000       0.00036390       0.00128732       0.00128732
Si      12.21975000      14.93525000      14.93525000      -0.00104187      -0.00036732      -0.00036732
Si      13.57750000      10.86200000      13.57750000      -0.00108329      -0.00038719      -0.00113985
Si      14.93525000      12.21975000      14.93525000      -0.00002321      -0.00030425       0.00068010
Si      13.57750000      13.57750000      10.86200000      -0.00108329      -0.00113985      -0.00038719
Si      14.93525000      14.93525000      12.21975000      -0.00002321       0.00068010      -0.00030425
B        6.78875000       8.14650000       8.14650000      28.56790567       0.00000000       0.00000000
