216
Lattice="11.605727294873521 0.0 0.0 0.0 13.401139555673227 0.0 0.0 0.0 28.428109966331448" Properties=species:S:1:pos:R:3:forces:R:3:energies:R:1 energy=-1165.478060583136 stress="0.0075423668348057115 -1.133560928479286e-17 -2.076404451650207e-18 -1.133560928479286e-17 0.007610408689143028 1.9687674966832588e-05 -2.076404451650207e-18 1.9687674966832588e-05 0.007615092595343464" free_energy=-1165.478060583136 pbc="T T T"
Si      11.60572729      13.39806661      20.94500101       0.00000000       0.00003675       0.00010854      -5.38170934
Si       0.00000000      13.39125530      23.32119944       0.00000000       0.00004161       0.00000354      -5.38645353
Si       0.00000000       2.23524631      24.09078668      -0.00000000       0.00000565       0.00003921      -5.38057975
Si       0.00000000       2.22855150      26.46092646      -0.00000000       0.00007811       0.00002204      -5.39217485
Si       0.00000000       4.46578019      27.24175039      -0.00000000       0.00002651      -0.00001757      -5.38876360
Si       0.00000000       4.45869670       1.18078989      -0.00000000       0.00001454      -0.00004342      -5.38607754
Si       1.93461750       1.11027159      27.25143421      -0.00002882       0.00005265       0.00000050      -5.38446314
Si       1.90440802       1.06378545       1.18465375       0.00002930       0.00005473       0.00003031      -5.35167765
Si       1.94624605       3.36057065      20.92679532       0.00001636       0.00006585       0.00001954      -5.37610442
Si       1.94305843       3.35894096      23.30274558       0.00006526       0.00007893      -0.00002286      -5.38529041
Si       1.98725794       5.58796961      24.09006931       0.00006154       0.00008212      -0.00002062      -5.35133795
Si       1.94136333       5.58260759      26.45291670       0.00007477       0.00001034       0.00001344      -5.38702424
Si       3.87041363       0.00853307      20.94707951      -0.00004809       0.00000938       0.00000670      -5.38426283
Si       3.87182788       0.02573178      23.32236134      -0.00000761       0.00006184      -0.00003752      -5.36875126
Si       3.90021947       2.29086658      24.09039695       0.00002702       0.00007336      -0.00002717      -5.35469782
Si       3.86906773       2.24490152      26.45348882       0.00003677       0.00007335      -0.00000689      -5.38596727
Si       3.90090934       4.48935517      27.19331467       0.00002868       0.00005426       0.00002021      -5.35678201
Si       3.87588862       4.48375729       1.15735545       0.00005112       0.00004488      -0.00008100      -5.36813548
Si       5.80286365       1.13215774      27.25319566       0.00000000      -0.00000507      -0.00000994      -5.39158661
Si       5.80286365       1.14820417       1.20247330      -0.00000000       0.00007128      -0.00005128      -5.36792038
Si       5.80286365       3.39280920      20.96968293       0.00000000       0.00010159      -0.00002839      -5.35731763
Si       5.80286365       3.56685054      23.36808953      -0.00000000       0.00000030      -0.00004817      -5.39756571
B        5.80286365       5.58629644      24.08552702      -0.00000000       0.00004119       0.00000267      -6.50658952
Si       5.80286365       5.58766053      26.22888773      -0.00000000       0.00005450       0.00005881      -5.40279314
Si       7.73531366       0.00853307      20.94707951       0.00004809       0.00000938       0.00000670      -5.38426283
Si       7.73389942       0.02573178      23.32236134       0.00000761       0.00006184      -0.00003752      -5.36875126
Si       7.70550782       2.29086658      24.09039695      -0.00002702       0.00007336      -0.00002717      -5.35469782
Si       7.73665956       2.24490152      26.45348882      -0.00003677       0.00007335      -0.00000689      -5.38596727
Si       7.70481796       4.48935517      27.19331467      -0.00002868       0.00005426       0.00002021      -5.35678201
Si       7.72983867       4.48375729       1.15735545      -0.00005112       0.00004488      -0.00008100      -5.36813548
Si       9.67110980       1.11027159      27.25143421       0.00002882       0.00005265       0.00000050      -5.38446314
Si       9.70131928       1.06378545       1.18465375      -0.00002930       0.00005473       0.00003031      -5.35167765
Si       9.65948124       3.36057065      20.92679532      -0.00001636       0.00006585       0.00001954      -5.37610442
Si       9.66266886       3.35894096      23.30274558      -0.00006526       0.00007893      -0.00002286      -5.38529041
Si       9.61846935       5.58796961      24.09006931      -0.00006154       0.00008212      -0.00002062      -5.35133795
Si       9.66436396       5.58260759      26.45291670      -0.00007477       0.00001034       0.00001344      -5.38702424
Si       0.00000000       6.69849965      20.95106280      -0.00000000       0.00003346       0.00004945      -5.38587513
Si       0.00000000       6.69635690      23.32539952       0.00000000       0.00007329      -0.00005430      -5.35468450
Si       0.00000000       8.93394077      24.13788008       0.00000000       0.00002457      -0.00001064      -5.37280304
Si       0.00000000       8.96090769      26.52668019       0.00000000       0.00004270      -0.00004227      -5.35077872
Si       0.00000000      11.16181141      27.48263780      -0.00000000       0.00005215      -0.00012297      -5.40015772
B        0.00000000      11.15682055       1.19475644      -0.00000000       0.00004908      -0.00000334      -6.49657870
Si       1.93651104       7.81486282      27.26488850       0.00001839      -0.00001351      -0.00002858      -5.38010293
Si       1.92134879       7.85552755       1.20783111       0.00002250      -0.00001397      -0.00000682      -5.33865919
Si       1.94000254      10.04148482      20.95541607      -0.00003144       0.00001944       0.00004637      -5.38606192
Si       1.94990648      10.02711561      23.33102209      -0.00002328       0.00006068      -0.00000515      -5.37062867
Si       1.93505450      12.27460924      24.12945988      -0.00009222       0.00002122       0.00002923      -5.36638184
Si       1.90390857      12.26399618      26.51886760      -0.00001730       0.00004487      -0.00003224      -5.35547791
Si       3.90242689       6.68082275      20.97353571       0.00000152       0.00001278       0.00005106      -5.35784856
Si       4.05064030       6.59449380      23.37188159      -0.00005832       0.00009612      -0.00010040      -5.39542247
Si       3.89886508       8.87895157      24.09976348      -0.00007618       0.00000963       0.00003932      -5.35405006
Si       3.87143359       8.93120247      26.46381555       0.00003184       0.00007783      -0.00001275      -5.37992739
Si       3.86377637      11.17056655      27.26062297      -0.00002144       0.00000669      -0.00002005      -5.38703623
Si       3.81911643      11.16861111       1.19424862       0.00000440      -0.00000876       0.00003276      -5.34800748
Si       5.80286365       7.78266151      27.19936584      -0.00000000       0.00004592       0.00008309      -5.35300789
Si       5.80286365       7.80676198       1.15979845       0.00000000       0.00004156       0.00005960      -5.37430273
Si       5.80286365      10.03624740      20.93740219       0.00000000      -0.00002655       0.00000522      -5.37833210
Si       5.80286365      10.04260029      23.31371642      -0.00000000       0.00000748      -0.00004384      -5.38169169
Si       5.80286365      12.29151962      24.10193406      -0.00000000       0.00001657       0.00003720      -5.38729641
Si       5.80286365      12.29109484      26.47152676      -0.00000000       0.00002807      -0.00000878      -5.38747553
Si       7.70330040       6.68082275      20.97353571      -0.00000152       0.00001278       0.00005106      -5.35784856
Si       7.55508700       6.59449380      23.37188159       0.00005832       0.00009612      -0.00010040      -5.39542247
Si       7.70686222       8.87895157      24.09976348       0.00007618       0.00000963       0.00003932      -5.35405006
Si       7.73429371       8.93120247      26.46381555      -0.00003184       0.00007783      -0.00001275      -5.37992739
Si       7.74195093      11.17056655      27.26062297       0.00002144       0.00000669      -0.00002005      -5.38703623
Si       7.78661086      11.16861111       1.19424862      -0.00000440      -0.00000876       0.00003276      -5.34800748
Si       9.66921626       7.81486282      27.26488850      -0.00001839      -0.00001351      -0.00002858      -5.38010293
Si       9.68437850       7.85552755       1.20783111      -0.00002250      -0.00001397      -0.00000682      -5.33865919
Si       9.66572475      10.04148482      20.95541607       0.00003144       0.00001944       0.00004637      -5.38606192
Si       9.65582081      10.02711561      23.33102209       0.00002328       0.00006068      -0.00000515      -5.37062867
Si       9.67067280      12.27460924      24.12945988       0.00009222       0.00002122       0.00002923      -5.36638184
Si       9.70181873      12.26399618      26.51886760       0.00001730       0.00004487      -0.00003224      -5.35547791
Si       0.00000000      13.18341330       1.89722503       0.00000000       0.00009964       0.00012019      -5.39747941
Si       0.00000000      13.35391727       4.28711071      -0.00000000      -0.00000812      -0.00000479      -5.35619161
Si       0.00000000       2.20700490       5.09615276      -0.00000000      -0.00006336       0.00002594      -5.36661894
Si       0.00000000       2.22711422       7.47540343      -0.00000000      -0.00005086       0.00005243      -5.39647892
Si       0.00000000       4.46266505       8.27109222       0.00000000      -0.00008279      -0.00004340      -5.38048744
Si      11.60572729       4.46598760      10.64763369       0.00000000      -0.00005472       0.00005170      -5.38323844
Si       1.93539246       1.11867043       8.27731743      -0.00000717      -0.00007394      -0.00002733      -5.38286434
Si       1.93550874       1.11984358      10.65196597       0.00000436      -0.00005195       0.00005068      -5.38350095
Si       1.93731497       3.32906249       1.95666583       0.00004992       0.00004765       0.00001871      -5.36323419
Si       1.94105031       3.34668388       4.32897124       0.00006806      -0.00000340      -0.00001751      -5.38868956
Si       1.98602416       5.58180146       5.11322354       0.00004909      -0.00001960      -0.00004757      -5.34621177
Si       1.94315999       5.57701997       7.47848478       0.00006564      -0.00004954       0.00001680      -5.38938803
Si       3.86532008       0.00563848       1.97002067       0.00001201       0.00002575       0.00001614      -5.38782542
Si       3.87285924       0.02616892       4.33877641       0.00002870       0.00001770       0.00001568      -5.36664535
Si       3.90094893       2.28944633       5.11803043       0.00000244      -0.00001655      -0.00000374      -5.34992947
Si       3.87035993       2.24646133       7.48202869       0.00003717      -0.00004202       0.00003887      -5.38725423
Si       3.90319394       4.48917010       8.22612473       0.00004943      -0.00002887       0.00000192      -5.35212407
Si       3.88665152       4.47968834      10.62369009      -0.00000835      -0.00005341       0.00002041      -5.37118069
Si       5.80286365       1.13191687       8.28668300       0.00000000      -0.00000899      -0.00002650      -5.37569999
Si       5.80286365       1.14599558      10.67044866       0.00000000      -0.00007690      -0.00000231      -5.36957517
Si       5.80286365       3.40257388       2.00520606      -0.00000000       0.00005253      -0.00005369      -5.35811890
Si       5.80286365       3.57124257       4.40013232      -0.00000000      -0.00008575       0.00000525      -5.39867847
B        5.80286365       5.59385163       5.11110448       0.00000000       0.00001585       0.00003123      -6.49597223
Si       5.80286365       5.58920195       7.25681565       0.00000000      -0.00011889       0.00010511      -5.40497714
Si       7.74040722       0.00563848       1.97002067      -0.00001201       0.00002575       0.00001614      -5.38782542
Si       7.73286805       0.02616892       4.33877641      -0.00002870       0.00001770       0.00001568      -5.36664535
Si       7.70477836       2.28944633       5.11803043      -0.00000244      -0.00001655      -0.00000374      -5.34992947
Si       7.73536737       2.24646133       7.48202869      -0.00003717      -0.00004202       0.00003887      -5.38725423
Si       7.70253335       4.48917010       8.22612473      -0.00004943      -0.00002887       0.00000192      -5.35212407
Si       7.71907577       4.47968834      10.62369009       0.00000835      -0.00005341       0.00002041      -5.37118069
Si       9.67033484       1.11867043       8.27731743       0.00000717      -0.00007394      -0.00002733      -5.38286434
Si       9.67021856       1.11984358      10.65196597      -0.00000436      -0.00005195       0.00005068      -5.38350095
Si       9.66841233       3.32906249       1.95666583      -0.00004992       0.00004765       0.00001871      -5.36323419
Si       9.66467699       3.34668388       4.32897124      -0.00006806      -0.00000340      -0.00001751      -5.38868956
Si       9.61970313       5.58180146       5.11322354      -0.00004909      -0.00001960      -0.00004757      -5.34621177
Si       9.66256730       5.57701997       7.47848478      -0.00006564      -0.00004954       0.00001680      -5.38938803
Si       0.00000000       6.69954017       1.97164604      -0.00000000      -0.00007302      -0.00000004      -5.38707705
Si       0.00000000       6.69046722       4.33959924       0.00000000      -0.00005105      -0.00002226      -5.35576840
Si       0.00000000       8.93025506       5.12347263      -0.00000000      -0.00006482       0.00000216      -5.38661858
Si       0.00000000       8.92379843       7.49814277       0.00000000      -0.00004826       0.00000909      -5.38129104
Si       0.00000000      11.16019704       8.28732616      -0.00000000      -0.00003916      -0.00006729      -5.38945824
Si       0.00000000      11.15682696      10.66200542      -0.00000000      -0.00001174      -0.00006282      -5.38120503
Si       1.94516365       7.80785700       8.28680003      -0.00001176      -0.00009729      -0.00002957      -5.37674333
Si       1.95344542       7.80001614      10.67268861      -0.00001728      -0.00006076       0.00002105      -5.36800424
Si       1.76063315      10.14743938       1.90611668       0.00014341      -0.00007922       0.00007427      -5.39741325
Si       1.92168175      10.04330068       4.29442595      -0.00000363      -0.00005310      -0.00004157      -5.34049175
Si       1.93697339      12.27389954       5.11729567      -0.00007362      -0.00004011       0.00006034      -5.38134634
Si       1.93371621      12.28080333       7.49224131      -0.00000749      -0.00005720       0.00002659      -5.38709916
Si       3.88376432       6.70423324       2.00361874       0.00011051      -0.00003012       0.00004034      -5.34277984
Si       4.04367346       6.60176493       4.39607248      -0.00012266       0.00004324      -0.00007513      -5.39879706
Si       3.88297725       8.89225333       5.09934970       0.00001545      -0.00006171       0.00000029      -5.33948147
Si       3.87296224       8.93052503       7.47351791       0.00001020       0.00000962       0.00001984      -5.38623914
Si       3.87043313      11.16515024       8.28449678      -0.00007388      -0.00003761      -0.00003359      -5.38412541
Si       3.87086079      11.16812492      10.65974295      -0.00000330      -0.00000923       0.00003837      -5.38143085
Si       5.80286365       7.78370548       8.22277614       0.00000000      -0.00005372       0.00002142      -5.35233595
Si       5.80286365       7.79885118      10.62421747      -0.00000000       0.00003784       0.00009488      -5.36872945
Si       5.80286365      10.05138664       1.96060899      -0.00000000      -0.00003324       0.00000708      -5.35176050
Si       5.80286365      10.04909056       4.33234518      -0.00000000       0.00001026      -0.00001687      -5.38755494
Si       5.80286365      12.29228664       5.12517070      -0.00000000      -0.00000332       0.00001237      -5.38181498
Si       5.80286365      12.29133294       7.49668203       0.00000000       0.00002748      -0.00000031      -5.38768464
Si       7.72196297       6.70423324       2.00361874      -0.00011051      -0.00003012       0.00004034      -5.34277984
Si       7.56205383       6.60176493       4.39607248       0.00012266       0.00004324      -0.00007513      -5.39879706
Si       7.72275004       8.89225333       5.09934970      -0.00001545      -0.00006171       0.00000029      -5.33948147
Si       7.73276506       8.93052503       7.47351791      -0.00001020       0.00000962       0.00001984      -5.38623914
Si       7.73529417      11.16515024       8.28449678       0.00007388      -0.00003761      -0.00003359      -5.38412541
Si       7.73486650      11.16812492      10.65974295       0.00000330      -0.00000923       0.00003837      -5.38143085
Si       9.66056364       7.80785700       8.28680003       0.00001176      -0.00009729      -0.00002957      -5.37674333
Si       9.65228188       7.80001614      10.67268861       0.00001728      -0.00006076       0.00002105      -5.36800424
Si       9.84509415      10.14743938       1.90611668      -0.00014341      -0.00007922       0.00007427      -5.39741325
Si       9.68404555      10.04330068       4.29442595       0.00000363      -0.00005310      -0.00004157      -5.34049175
Si       9.66875391      12.27389954       5.11729567       0.00007362      -0.00004011       0.00006034      -5.38134634
Si       9.67201109      12.28080333       7.49224131       0.00000749      -0.00005720       0.00002659      -5.38709916
Si       0.00000000      13.39841635      11.44597255      -0.00000000      -0.00006476       0.00004383      -5.38263605
Si       0.00000000      13.39447764      13.81988383       0.00000000       0.00001959       0.00004988      -5.38490141
Si       0.00000000       2.23645593      14.60290469       0.00000000       0.00000804       0.00005053      -5.38072399
Si       0.00000000       2.23598991      16.97589852      -0.00000000       0.00010106      -0.00007803      -5.39783083
Si       0.00000000       4.46955680      17.76701986       0.00000000       0.00000813      -0.00005789      -5.38221579
Si      11.60572729       4.47040567      20.14256992      -0.00000000       0.00011891      -0.00009275      -5.38257763
Si       1.93542911       1.12074901      17.77057550      -0.00005035       0.00004978       0.00000454      -5.38209989
Si       1.93482646       1.11948688      20.14644066      -0.00000925       0.00002497      -0.00001604      -5.38350282
Si       1.94680689       3.35969079      11.43617728       0.00001175      -0.00003388       0.00005622      -5.37518547
Si       1.94409969       3.35805898      13.81430128      -0.00000679      -0.00001054       0.00000419      -5.38641769
Si       1.98804584       5.58642257      14.60390874       0.00004008      -0.00000613      -0.00001801      -5.34966281
Si       1.94381134       5.57996685      16.97067632      -0.00001145       0.00000943      -0.00001156      -5.38817275
Si       3.87219972       0.00957568      11.45074084      -0.00002659      -0.00004546      -0.00000876      -5.38413890
Si       3.87842529       0.02987132      13.82420046      -0.00001684      -0.00001704       0.00001401      -5.37164460
Si       3.90106632       2.29122864      14.60477873      -0.00000092       0.00004569      -0.00003313      -5.35284890
Si       3.87030021       2.24646741      16.97117707       0.00002177       0.00000479      -0.00003037      -5.38737216
Si       3.90261545       4.48850995      17.71700448       0.00003783       0.00006008      -0.00005397      -5.35340604
Si       3.88629797       4.47941796      20.11425182      -0.00000137       0.00008525      -0.00010128      -5.37071049
Si       5.80286365       1.13134905      17.77819332      -0.00000000       0.00001685      -0.00008758      -5.37602252
Si       5.80286365       1.14386442      20.16413075       0.00000000      -0.00005399      -0.00011128      -5.36837028
Si       5.80286365       3.39368300      11.48059318       0.00000000       0.00001445       0.00000697      -5.35596309
Si       5.80286365       3.56695370      13.88085932      -0.00000000      -0.00010942      -0.00003264      -5.39857436
B        5.80286365       5.58571158      14.60031106       0.00000000      -0.00002497       0.00002038      -6.50271795
Si       5.80286365       5.58570063      16.74828754      -0.00000000      -0.00005410       0.00005919      -5.40197783
Si       7.73352758       0.00957568      11.45074084       0.00002659      -0.00004546      -0.00000876      -5.38413890
Si       7.72730200       0.02987132      13.82420046       0.00001684      -0.00001704       0.00001401      -5.37164460
Si       7.70466098       2.29122864      14.60477873       0.00000092       0.00004569      -0.00003313      -5.35284890
Si       7.73542709       2.24646741      16.97117707      -0.00002177       0.00000479      -0.00003037      -5.38737216
Si       7.70311184       4.48850995      17.71700448      -0.00003783       0.00006008      -0.00005397      -5.35340604
Si       7.71942933       4.47941796      20.11425182       0.00000137       0.00008525      -0.00010128      -5.37071049
Si       9.67029818       1.12074901      17.77057550       0.00005035       0.00004978       0.00000454      -5.38209989
Si       9.67090084       1.11948688      20.14644066       0.00000925       0.00002497      -0.00001604      -5.38350282
Si       9.65892041       3.35969079      11.43617728      -0.00001175      -0.00003388       0.00005622      -5.37518547
Si       9.66162761       3.35805898      13.81430128       0.00000679      -0.00001054       0.00000419      -5.38641769
Si       9.61768145       5.58642257      14.60390874      -0.00004008      -0.00000613      -0.00001801      -5.34966281
Si       9.66191596       5.57996685      16.97067632       0.00001145       0.00000943      -0.00001156      -5.38817275
Si       0.00000000       6.69415153      11.45281888       0.00000000      -0.00007985       0.00005278      -5.38600279
Si       0.00000000       6.68629159      13.82621925      -0.00000000      -0.00005805       0.00003134      -5.35742065
Si       0.00000000       8.92146072      14.61935488       0.00000000      -0.00008789      -0.00004745      -5.38541656
Si       0.00000000       8.92384390      16.99337164       0.00000000      -0.00001728       0.00000955      -5.38020021
Si       0.00000000      11.16171479      17.78288654      -0.00000000       0.00001643       0.00007138      -5.38223333
Si      11.60572729      11.15777244      20.15992308       0.00000000       0.00009407      -0.00001353      -5.38264761
Si       1.94492167       7.80863946      17.78320791      -0.00000139      -0.00005847      -0.00001423      -5.37639277
Si       1.95269610       7.80226923      20.16941362       0.00001276       0.00002365      -0.00001808      -5.36821764
Si       1.94106358      10.03989455      11.45545655      -0.00003413      -0.00006687      -0.00000813      -5.38718192
Si       1.95251873      10.02497994      13.82905415      -0.00002958      -0.00004012       0.00002724      -5.36883613
Si       1.94470239      12.28017532      14.61135802      -0.00009152      -0.00004895       0.00004989      -5.37864145
Si       1.93502413      12.28255816      16.98583801      -0.00000706      -0.00000356      -0.00002383      -5.38687727
Si       3.90329649       6.68125338      11.48166581       0.00000483      -0.00008900       0.00006075      -5.35710212
Si       4.05070628       6.59395353      13.88281772      -0.00011136       0.00000717      -0.00003534      -5.39602756
Si       3.89992615       8.87798596      14.61055726      -0.00006650      -0.00007992      -0.00000588      -5.35519231
Si       3.87703827       8.92680148      16.97739798      -0.00002918       0.00000882      -0.00001995      -5.38639478
Si       3.87093889      11.16514494      17.77928321      -0.00004420      -0.00002096       0.00000881      -5.38299195
Si       3.86979421      11.16818131      20.15544344       0.00000301       0.00002301      -0.00000163      -5.38184539
Si       5.80286365       7.77794415      17.72268458      -0.00000000      -0.00005831       0.00003880      -5.35387436
Si       5.80286365       7.79744213      20.11986096      -0.00000000       0.00006013       0.00008523      -5.36996097
Si       5.80286365      10.03646165      11.44458094       0.00000000      -0.00004737      -0.00000570      -5.37831656
Si       5.80286365      10.04297574      13.82313319       0.00000000      -0.00007139      -0.00002660      -5.38270256
Si       5.80286365      12.29139204      14.61423637       0.00000000      -0.00002449       0.00001540      -5.38385247
Si       5.80286365      12.29053281      16.98799359       0.00000000      -0.00002551       0.00000090      -5.38806380
Si       7.70243080       6.68125338      11.48166581      -0.00000483      -0.00008900       0.00006075      -5.35710212
Si       7.55502101       6.59395353      13.88281772       0.00011136       0.00000717      -0.00003534      -5.39602756
Si       7.70580114       8.87798596      14.61055726       0.00006650      -0.00007992      -0.00000588      -5.35519231
Si       7.72868903       8.92680148      16.97739798       0.00002918       0.00000882      -0.00001995      -5.38639478
Si       7.73478841      11.16514494      17.77928321       0.00004420      -0.00002096       0.00000881      -5.38299195
Si       7.73593309      11.16818131      20.15544344      -0.00000301       0.00002301      -0.00000163      -5.38184539
Si       9.66080563       7.80863946      17.78320791       0.00000139      -0.00005847      -0.00001423      -5.37639277
Si       9.65303120       7.80226923      20.16941362      -0.00001276       0.00002365      -0.00001808      -5.36821764
Si       9.66466371      10.03989455      11.45545655       0.00003413      -0.00006687      -0.00000813      -5.38718192
Si       9.65320856      10.02497994      13.82905415       0.00002958      -0.00004012       0.00002724      -5.36883613
Si       9.66102491      12.28017532      14.61135802       0.00009152      -0.00004895       0.00004989      -5.37864145
Si       9.67070317      12.28255816      16.98583801       0.00000706      -0.00000356      -0.00002383      -5.38687727
