216
Lattice="11.605727294873521 0.0 0.0 0.0 13.401139555673227 0.0 0.0 0.0 28.428109966331448" Properties=species:S:1:pos:R:3:forces:R:3 energy=-1164.1964721768657 free_energy=-1164.1964721768657 pbc="T T T"
Si       0.00000000       0.00000000      20.92624761       0.00000000      -0.00006036      -0.00007668
Si      11.60572729      13.40113956      23.29525678       0.00000000      -0.00004367       0.00002539
Si      11.60572729       2.23352326      24.08492650       0.00000000      -0.00000175      -0.00012722
Si      11.60572729       2.23352326      26.45393566       0.00000000       0.00004623      -0.00002050
Si      11.60572729       4.46704652      27.24360538       0.00000000       0.00000477      -0.00008173
Si       0.00000000       4.46704652       1.18450458      -0.00000000      -0.00001817      -0.00004711
Si       1.93428788       1.11676163      27.24360538      -0.00001583       0.00001430      -0.00007110
Si       1.93428788       1.11676163       1.18450458      -0.00004400       0.00000417      -0.00001014
Si       1.93428788       3.35028489      20.92624761       0.00004397      -0.00004567      -0.00004152
Si       1.93428788       3.35028489      23.29525678       0.00000167      -0.00003930      -0.00000028
Si       1.93428788       5.58380815      24.08492650      -0.00004354      -0.00003236      -0.00004559
Si       1.93428788       5.58380815      26.45393566      -0.00004512      -0.00007106       0.00005601
Si       3.86857576      13.40113956      20.92624761      -0.00000167       0.00003930       0.00000028
Si       3.86857576      13.40113956      23.29525678      -0.00004397       0.00004567       0.00004152
Si       3.86857576       2.23352326      24.08492650      -0.00008530       0.00000216      -0.00005060
Si       3.86857576       2.23352326      26.45393566       0.00003926       0.00004330       0.00002678
Si       3.86857576       4.46704652      27.24360538      -0.00007984       0.00002945       0.00002191
Si       3.86857576       4.46704652       1.18450458      -0.00005925       0.00003295       0.00002523
Si       5.80286365       1.11676163      27.24360538      -0.00000000       0.00001417      -0.00003006
Si       5.80286365       1.11676163       1.18450458      -0.00000000       0.00005664      -0.00009041
Si       5.80286365       3.35028489      20.92624761       0.00000000       0.00004367      -0.00002539
Si       5.80286365       3.35028489      23.29525678      -0.00000000       0.00006036       0.00007668
B        5.80286365       5.58380815      24.08492650       0.00000000       0.00001838       0.00000646
Si       5.80286365       5.58380815      26.45393566      -0.00000000      -0.00000969       0.00001295
Si       7.73715153      13.40113956      20.92624761       0.00000167       0.00003930       0.00000028
Si       7.73715153      13.40113956      23.29525678       0.00004397       0.00004567       0.00004152
Si       7.73715153       2.23352326      24.08492650       0.00008530       0.00000216      -0.00005060
Si       7.73715153       2.23352326      26.45393566      -0.00003926       0.00004330       0.00002678
Si       7.73715153       4.46704652      27.24360538       0.00007984       0.00002945       0.00002191
Si       7.73715153       4.46704652       1.18450458       0.00005925       0.00003295       0.00002523
Si       9.67143941       1.11676163      27.24360538       0.00001583       0.00001430      -0.00007110
Si       9.67143941       1.11676163       1.18450458       0.00004400       0.00000417      -0.00001014
Si       9.67143941       3.35028489      20.92624761      -0.00004397      -0.00004567      -0.00004152
Si       9.67143941       3.35028489      23.29525678      -0.00000167      -0.00003930      -0.00000028
Si       9.67143941       5.58380815      24.08492650       0.00004354      -0.00003236      -0.00004559
Si       9.67143941       5.58380815      26.45393566       0.00004512      -0.00007106       0.00005601
Si      11.60572729       6.70056978      20.92624761      -0.00000000      -0.00001403       0.00001245
Si      11.60572729       6.70056978      23.29525678      -0.00000000      -0.00001407       0.00000671
Si      11.60572729       8.93409304      24.08492650       0.00000000      -0.00001827      -0.00002365
Si      11.60572729       8.93409304      26.45393566      -0.00000000      -0.00000106       0.00004003
Si      11.60572729      11.16761630      27.24360538      -0.00000000      -0.00001371      -0.00013883
B        0.00000000      11.16761630       1.18450458      -0.00000000       0.00002514      -0.00004897
Si       1.93428788       7.81733141      27.24360538      -0.00002123      -0.00001796      -0.00002072
Si       1.93428788       7.81733141       1.18450458      -0.00002396      -0.00000069      -0.00001685
Si       1.93428788      10.05085467      20.92624761      -0.00002572       0.00003562      -0.00001988
Si       1.93428788      10.05085467      23.29525678      -0.00000623       0.00002731       0.00004117
Si       1.93428788      12.28437793      24.08492650      -0.00005247       0.00000089      -0.00008194
Si       1.93428788      12.28437793      26.45393566      -0.00005311      -0.00000598      -0.00000583
Si       3.86857576       6.70056978      20.92624761       0.00000623      -0.00002731      -0.00004117
Si       3.86857576       6.70056978      23.29525678       0.00002572      -0.00003562       0.00001988
Si       3.86857576       8.93409304      24.08492650      -0.00000411       0.00003486      -0.00003655
Si       3.86857576       8.93409304      26.45393566       0.00005098      -0.00007441       0.00001918
Si       3.86857576      11.16761630      27.24360538       0.00003649      -0.00001173      -0.00004358
Si       3.86857576      11.16761630       1.18450458      -0.00001182      -0.00001829       0.00005163
Si       5.80286365       7.81733141      27.24360538      -0.00000000       0.00002211      -0.00003350
Si       5.80286365       7.81733141       1.18450458      -0.00000000      -0.00007357       0.00003232
Si       5.80286365      10.05085467      20.92624761       0.00000000       0.00001407      -0.00000671
Si       5.80286365      10.05085467      23.29525678       0.00000000       0.00001403      -0.00001245
Si       5.80286365      12.28437793      24.08492650       0.00000000       0.00001200      -0.00001899
Si       5.80286365      12.28437793      26.45393566       0.00000000       0.00018112       0.00005950
Si       7.73715153       6.70056978      20.92624761      -0.00000623      -0.00002731      -0.00004117
Si       7.73715153       6.70056978      23.29525678      -0.00002572      -0.00003562       0.00001988
Si       7.73715153       8.93409304      24.08492650       0.00000411       0.00003486      -0.00003655
Si       7.73715153       8.93409304      26.45393566      -0.00005098      -0.00007441       0.00001918
Si       7.73715153      11.16761630      27.24360538      -0.00003649      -0.00001173      -0.00004358
Si       7.73715153      11.16761630       1.18450458       0.00001182      -0.00001829       0.00005163
Si       9.67143941       7.81733141      27.24360538       0.00002123      -0.00001796      -0.00002072
Si       9.67143941       7.81733141       1.18450458       0.00002396      -0.00000069      -0.00001685
Si       9.67143941      10.05085467      20.92624761       0.00002572       0.00003562      -0.00001988
Si       9.67143941      10.05085467      23.29525678       0.00000623       0.00002731       0.00004117
Si       9.67143941      12.28437793      24.08492650       0.00005247       0.00000089      -0.00008194
Si       9.67143941      12.28437793      26.45393566       0.00005311      -0.00000598      -0.00000583
Si      11.60572729      13.40113956       1.97417430      -0.00000000       0.00005721       0.00010741
Si      11.60572729      13.40113956       4.34318347       0.00000000       0.00000241      -0.00003245
Si      11.60572729       2.23352326       5.13285319       0.00000000      -0.00006986       0.00005826
Si      11.60572729       2.23352326       7.50186235       0.00000000       0.00009865      -0.00003679
Si      11.60572729       4.46704652       8.29153207       0.00000000       0.00000654       0.00002687
Si       0.00000000       4.46704652      10.66054124      -0.00000000       0.00002799      -0.00007134
Si       1.93428788       1.11676163       8.29153207      -0.00003825      -0.00002096       0.00002414
Si       1.93428788       1.11676163      10.66054124       0.00005826       0.00002308      -0.00000084
Si       1.93428788       3.35028489       1.97417430      -0.00002410      -0.00001038       0.00004495
Si       1.93428788       3.35028489       4.34318347      -0.00001602       0.00002424      -0.00003921
Si       1.93428788       5.58380815       5.13285319      -0.00003731      -0.00000051       0.00001961
Si       1.93428788       5.58380815       7.50186235       0.00002470       0.00001460      -0.00003410
Si       3.86857576      13.40113956       1.97417430      -0.00001729      -0.00000212       0.00003209
Si       3.86857576      13.40113956       4.34318347       0.00001419       0.00000043       0.00000380
Si       3.86857576       2.23352326       5.13285319      -0.00005826      -0.00002308       0.00000084
Si       3.86857576       2.23352326       7.50186235       0.00003825       0.00002096      -0.00002414
Si       3.86857576       4.46704652       8.29153207      -0.00001087       0.00004079      -0.00004124
Si       3.86857576       4.46704652      10.66054124       0.00004205      -0.00001981      -0.00011122
Si       5.80286365       1.11676163       8.29153207       0.00000000      -0.00009865       0.00003679
Si       5.80286365       1.11676163      10.66054124      -0.00000000       0.00006986      -0.00005826
Si       5.80286365       3.35028489       1.97417430       0.00000000       0.00005091      -0.00003628
Si       5.80286365       3.35028489       4.34318347      -0.00000000      -0.00001183      -0.00003465
B        5.80286365       5.58380815       5.13285319      -0.00000000       0.00005767      -0.00005392
Si       5.80286365       5.58380815       7.50186235       0.00000000      -0.00008353      -0.00011049
Si       7.73715153      13.40113956       1.97417430       0.00001729      -0.00000212       0.00003209
Si       7.73715153      13.40113956       4.34318347      -0.00001419       0.00000043       0.00000380
Si       7.73715153       2.23352326       5.13285319       0.00005826      -0.00002308       0.00000084
Si       7.73715153       2.23352326       7.50186235      -0.00003825       0.00002096      -0.00002414
Si       7.73715153       4.46704652       8.29153207       0.00001087       0.00004079      -0.00004124
Si       7.73715153       4.46704652      10.66054124      -0.00004205      -0.00001981      -0.00011122
Si       9.67143941       1.11676163       8.29153207       0.00003825      -0.00002096       0.00002414
Si       9.67143941       1.11676163      10.66054124      -0.00005826       0.00002308      -0.00000084
Si       9.67143941       3.35028489       1.97417430       0.00002410      -0.00001038       0.00004495
Si       9.67143941       3.35028489       4.34318347       0.00001602       0.00002424      -0.00003921
Si       9.67143941       5.58380815       5.13285319       0.00003731      -0.00000051       0.00001961
Si       9.67143941       5.58380815       7.50186235      -0.00002470       0.00001460      -0.00003410
Si      11.60572729       6.70056978       1.97417430       0.00000000      -0.00002330       0.00006742
Si      11.60572729       6.70056978       4.34318347       0.00000000       0.00005292      -0.00002688
Si      11.60572729       8.93409304       5.13285319      -0.00000000      -0.00001077       0.00007277
Si      11.60572729       8.93409304       7.50186235      -0.00000000      -0.00000288       0.00003640
Si      11.60572729      11.16761630       8.29153207      -0.00000000       0.00008353       0.00011049
Si       0.00000000      11.16761630      10.66054124       0.00000000      -0.00005767       0.00005392
Si       1.93428788       7.81733141       8.29153207       0.00000090      -0.00000061       0.00005705
Si       1.93428788       7.81733141      10.66054124       0.00004244      -0.00004634      -0.00003820
Si       1.93428788      10.05085467       1.97417430       0.00006948      -0.00002943       0.00008712
Si       1.93428788      10.05085467       4.34318347      -0.00001808       0.00001575      -0.00002212
Si       1.93428788      12.28437793       5.13285319      -0.00004205       0.00001981       0.00011122
Si       1.93428788      12.28437793       7.50186235       0.00001087      -0.00004079       0.00004124
Si       3.86857576       6.70056978       1.97417430      -0.00003897      -0.00000297      -0.00006172
Si       3.86857576       6.70056978       4.34318347      -0.00000999      -0.00000491      -0.00010307
Si       3.86857576       8.93409304       5.13285319      -0.00004244       0.00004634       0.00003820
Si       3.86857576       8.93409304       7.50186235      -0.00000090       0.00000061      -0.00005705
Si       3.86857576      11.16761630       8.29153207      -0.00002470      -0.00001460       0.00003410
Si       3.86857576      11.16761630      10.66054124       0.00003731       0.00000051      -0.00001961
Si       5.80286365       7.81733141       8.29153207       0.00000000       0.00000288      -0.00003640
Si       5.80286365       7.81733141      10.66054124       0.00000000       0.00001077      -0.00007277
Si       5.80286365      10.05085467       1.97417430       0.00000000       0.00003275       0.00000921
Si       5.80286365      10.05085467       4.34318347       0.00000000      -0.00010211      -0.00005755
Si       5.80286365      12.28437793       5.13285319       0.00000000      -0.00002799       0.00007134
Si       5.80286365      12.28437793       7.50186235       0.00000000      -0.00000654      -0.00002687
Si       7.73715153       6.70056978       1.97417430       0.00003897      -0.00000297      -0.00006172
Si       7.73715153       6.70056978       4.34318347       0.00000999      -0.00000491      -0.00010307
Si       7.73715153       8.93409304       5.13285319       0.00004244       0.00004634       0.00003820
Si       7.73715153       8.93409304       7.50186235       0.00000090       0.00000061      -0.00005705
Si       7.73715153      11.16761630       8.29153207       0.00002470      -0.00001460       0.00003410
Si       7.73715153      11.16761630      10.66054124      -0.00003731       0.00000051      -0.00001961
Si       9.67143941       7.81733141       8.29153207      -0.00000090      -0.00000061       0.00005705
Si       9.67143941       7.81733141      10.66054124      -0.00004244      -0.00004634      -0.00003820
Si       9.67143941      10.05085467       1.97417430      -0.00006948      -0.00002943       0.00008712
Si       9.67143941      10.05085467       4.34318347       0.00001808       0.00001575      -0.00002212
Si       9.67143941      12.28437793       5.13285319       0.00004205       0.00001981       0.00011122
Si       9.67143941      12.28437793       7.50186235      -0.00001087      -0.00004079       0.00004124
Si      11.60572729      13.40113956      11.45021096      -0.00000000       0.00001183       0.00003465
Si      11.60572729      13.40113956      13.81922012       0.00000000      -0.00005091       0.00003628
Si      11.60572729       2.23352326      14.60888984      -0.00000000      -0.00005664       0.00009041
Si      11.60572729       2.23352326      16.97789901      -0.00000000      -0.00001417       0.00003006
Si      11.60572729       4.46704652      17.76756873       0.00000000      -0.00018112      -0.00005950
Si       0.00000000       4.46704652      20.13657789       0.00000000      -0.00001200       0.00001899
Si       1.93428788       1.11676163      17.76756873      -0.00003926      -0.00004330      -0.00002678
Si       1.93428788       1.11676163      20.13657789       0.00008530      -0.00000216       0.00005060
Si       1.93428788       3.35028489      11.45021096      -0.00001419      -0.00000043      -0.00000380
Si       1.93428788       3.35028489      13.81922012       0.00001729       0.00000212      -0.00003209
Si       1.93428788       5.58380815      14.60888984       0.00001182       0.00001829      -0.00005163
Si       1.93428788       5.58380815      16.97789901      -0.00003649       0.00001173       0.00004358
Si       3.86857576      13.40113956      11.45021096       0.00001602      -0.00002424       0.00003921
Si       3.86857576      13.40113956      13.81922012       0.00002410       0.00001038      -0.00004495
Si       3.86857576       2.23352326      14.60888984       0.00004400      -0.00000417       0.00001014
Si       3.86857576       2.23352326      16.97789901       0.00001583      -0.00001430       0.00007110
Si       3.86857576       4.46704652      17.76756873       0.00005311       0.00000598       0.00000583
Si       3.86857576       4.46704652      20.13657789       0.00005247      -0.00000089       0.00008194
Si       5.80286365       1.11676163      17.76756873      -0.00000000      -0.00004623       0.00002050
Si       5.80286365       1.11676163      20.13657789      -0.00000000       0.00000175       0.00012722
Si       5.80286365       3.35028489      11.45021096       0.00000000      -0.00000241       0.00003245
Si       5.80286365       3.35028489      13.81922012       0.00000000      -0.00005721      -0.00010741
B        5.80286365       5.58380815      14.60888984       0.00000000      -0.00002514       0.00004897
Si       5.80286365       5.58380815      16.97789901      -0.00000000       0.00001371       0.00013883
Si       7.73715153      13.40113956      11.45021096      -0.00001602      -0.00002424       0.00003921
Si       7.73715153      13.40113956      13.81922012      -0.00002410       0.00001038      -0.00004495
Si       7.73715153       2.23352326      14.60888984      -0.00004400      -0.00000417       0.00001014
Si       7.73715153       2.23352326      16.97789901      -0.00001583      -0.00001430       0.00007110
Si       7.73715153       4.46704652      17.76756873      -0.00005311       0.00000598       0.00000583
Si       7.73715153       4.46704652      20.13657789      -0.00005247      -0.00000089       0.00008194
Si       9.67143941       1.11676163      17.76756873       0.00003926      -0.00004330      -0.00002678
Si       9.67143941       1.11676163      20.13657789      -0.00008530      -0.00000216       0.00005060
Si       9.67143941       3.35028489      11.45021096       0.00001419      -0.00000043      -0.00000380
Si       9.67143941       3.35028489      13.81922012      -0.00001729       0.00000212      -0.00003209
Si       9.67143941       5.58380815      14.60888984      -0.00001182       0.00001829      -0.00005163
Si       9.67143941       5.58380815      16.97789901       0.00003649       0.00001173       0.00004358
Si      11.60572729       6.70056978      11.45021096       0.00000000       0.00010211       0.00005755
Si      11.60572729       6.70056978      13.81922012       0.00000000      -0.00003275      -0.00000921
Si      11.60572729       8.93409304      14.60888984      -0.00000000       0.00007357      -0.00003232
Si      11.60572729       8.93409304      16.97789901      -0.00000000      -0.00002211       0.00003350
Si      11.60572729      11.16761630      17.76756873      -0.00000000       0.00000969      -0.00001295
Si       0.00000000      11.16761630      20.13657789      -0.00000000      -0.00001838      -0.00000646
Si       1.93428788       7.81733141      17.76756873      -0.00005098       0.00007441      -0.00001918
Si       1.93428788       7.81733141      20.13657789       0.00000411      -0.00003486       0.00003655
Si       1.93428788      10.05085467      11.45021096       0.00000999       0.00000491       0.00010307
Si       1.93428788      10.05085467      13.81922012       0.00003897       0.00000297       0.00006172
Si       1.93428788      12.28437793      14.60888984       0.00005925      -0.00003295      -0.00002523
Si       1.93428788      12.28437793      16.97789901       0.00007984      -0.00002945      -0.00002191
Si       3.86857576       6.70056978      11.45021096       0.00001808      -0.00001575       0.00002212
Si       3.86857576       6.70056978      13.81922012      -0.00006948       0.00002943      -0.00008712
Si       3.86857576       8.93409304      14.60888984       0.00002396       0.00000069       0.00001685
Si       3.86857576       8.93409304      16.97789901       0.00002123       0.00001796       0.00002072
Si       3.86857576      11.16761630      17.76756873       0.00004512       0.00007106      -0.00005601
Si       3.86857576      11.16761630      20.13657789       0.00004354       0.00003236       0.00004559
Si       5.80286365       7.81733141      17.76756873       0.00000000       0.00000106      -0.00004003
Si       5.80286365       7.81733141      20.13657789       0.00000000       0.00001827       0.00002365
Si       5.80286365      10.05085467      11.45021096       0.00000000      -0.00005292       0.00002688
Si       5.80286365      10.05085467      13.81922012       0.00000000       0.00002330      -0.00006742
Si       5.80286365      12.28437793      14.60888984      -0.00000000       0.00001817       0.00004711
Si       5.80286365      12.28437793      16.97789901      -0.00000000      -0.00000477       0.00008173
Si       7.73715153       6.70056978      11.45021096      -0.00001808      -0.00001575       0.00002212
Si       7.73715153       6.70056978      13.81922012       0.00006948       0.00002943      -0.00008712
Si       7.73715153       8.93409304      14.60888984      -0.00002396       0.00000069       0.00001685
Si       7.73715153       8.93409304      16.97789901      -0.00002123       0.00001796       0.00002072
Si       7.73715153      11.16761630      17.76756873      -0.00004512       0.00007106      -0.00005601
Si       7.73715153      11.16761630      20.13657789      -0.00004354       0.00003236       0.00004559
Si       9.67143941       7.81733141      17.76756873       0.00005098       0.00007441      -0.00001918
Si       9.67143941       7.81733141      20.13657789      -0.00000411      -0.00003486       0.00003655
Si       9.67143941      10.05085467      11.45021096      -0.00000999       0.00000491       0.00010307
Si       9.67143941      10.05085467      13.81922012      -0.00003897       0.00000297       0.00006172
Si       9.67143941      12.28437793      14.60888984      -0.00005925      -0.00003295      -0.00002523
Si       9.67143941      12.28437793      16.97789901      -0.00007984      -0.00002945      -0.00002191
