360
Lattice="11.605727294873521 0.0 0.0 0.0 16.412976941613742 0.0 0.0 0.0 38.6857576495784" Properties=species:S:1:pos:R:3:move_mask:L:1:forces:R:3 energy=-1735.3476290766935 free_energy=-1735.3476290766935 pbc="F F F"
Si       5.31929168       7.52261443      20.09725110  F      -0.53939210      -0.74270109      -1.09828384
Si       5.31929168       6.15486635     -19.13010716  F      -0.85630112       0.15949230       1.05508131
Si      -4.35214774      -6.15486635     -19.13010716  F       0.85630112      -0.15949230       1.05508131
Si      -4.35214774      -7.52261443     -17.19581928  F       0.06885851       0.94797319      -0.22244335
Si      -2.41785985       7.52261443      20.09725110  F       0.39551748      -0.57460077      -0.86246812
Si      -2.41785985       6.15486635     -19.13010716  F      -0.11517356      -0.24158232       0.66496108
Si      -0.48357197      -6.15486635     -19.13010716  F       0.05452196       0.08019329       0.63970484
Si      -0.48357197      -7.52261443     -17.19581928  F      -0.00083896       0.36714295      -0.24913541
Si       1.45071591       7.52261443      20.09725110  F      -0.01762269      -0.55079645      -0.75896476
Si       1.45071591       6.15486635     -19.13010716  F      -0.05452196      -0.08019328       0.63970483
Si       3.38500379      -6.15486635     -19.13010716  F       0.11517355       0.24158231       0.66496108
Si       3.38500379      -7.52261443     -17.19581928  F      -0.10925011       0.43337952      -0.17392162
Si       5.31929168      -3.41937020      20.09725110  F      -0.77779328       0.02627133      -0.78453669
Si       5.31929168      -4.78711827     -19.13010716  F      -0.80252522       0.03036378       0.77617816
Si      -4.35214774      -0.68387404     -19.13010716  F       0.80685260       0.00408758       0.80497710
Si      -4.35214774      -2.05162212     -17.19581928  F       0.18028429       0.30671933      -0.18111428
Si      -2.41785985      -3.41937020      20.09725110  F      -0.23038190       0.29710606      -0.15305707
Si      -2.41785985      -4.78711827     -19.13010716  F      -0.23048013      -0.26315183       0.16838428
Si      -0.48357197      -0.68387404     -19.13010716  F       0.08828668       0.22135063       0.11684639
Si      -0.48357197      -2.05162212     -17.19581928  F       0.11428941      -0.00514688      -0.15488129
Si       1.45071591      -3.41937020      20.09725110  F      -0.08912238       0.21658003      -0.10577254
Si       1.45071591      -4.78711827     -19.13010716  F      -0.08745707      -0.07356414       0.07513355
Si       3.38500379      -0.68387404     -19.13010716  F       0.19613909       0.34265636       0.16509982
Si       3.38500379      -2.05162212     -17.19581928  F       0.06513215      -0.05228527      -0.11643379
Si       5.31929168       2.05162212      20.09725110  F      -0.81585099       0.00832788      -0.80545696
Si       5.31929168       0.68387404     -19.13010716  F      -0.80685260      -0.00408758       0.80497710
Si      -4.35214774       4.78711827     -19.13010716  F       0.80252522      -0.03036379       0.77617818
Si      -4.35214774       3.41937020     -17.19581928  F       0.15726157       0.29216829      -0.18507506
Si      -2.41785985       2.05162212      20.09725110  F      -0.18292887       0.32437883      -0.17900224
Si      -2.41785985       0.68387404     -19.13010716  F      -0.19613909      -0.34265635       0.16509982
Si      -0.48357197       4.78711827     -19.13010716  F       0.08745707       0.07356414       0.07513356
Si      -0.48357197       3.41937020     -17.19581928  F       0.11332523       0.01027682      -0.13951927
Si       1.45071591       2.05162212      20.09725110  F      -0.08873416       0.23119568      -0.13851004
Si       1.45071591       0.68387404     -19.13010716  F      -0.08828668      -0.22135062       0.11684639
Si       3.38500379       4.78711827     -19.13010716  F       0.23048013       0.26315183       0.16838428
Si       3.38500379       3.41937020     -17.19581928  F       0.11096478       0.01918100      -0.10722982
Si       5.31929168       7.52261443     -17.19581928  F      -0.06885851      -0.94797318      -0.22244335
Si       5.31929168       6.15486635     -15.26153139  F      -0.45886730       0.44025409       0.07201966
Si      -4.35214774      -6.15486635     -15.26153139  F       0.45886734      -0.44025409       0.07201968
Si      -4.35214774      -7.52261443     -13.32724351  F       0.03342975       0.37325932      -0.53871749
Si      -2.41785985       7.52261443     -17.19581928  F       0.10925010      -0.43337949      -0.17392163
Si      -2.41785985       6.15486635     -15.26153139  F      -0.02771010      -0.12750223       0.08880517
Si      -0.48357197      -6.15486635     -15.26153139  F      -0.13264800       0.02156485      -0.02494355
Si      -0.48357197      -7.52261443     -13.32724351  F      -0.12825476       0.48393058       0.85624377
Si       1.45071591       7.52261443     -17.19581928  F       0.00083896      -0.36714301      -0.24913540
Si       1.45071591       6.15486635     -15.26153139  F       0.13264804      -0.02156470      -0.02494374
Si       3.38500379      -6.15486635     -15.26153139  F       0.02771017       0.12750213       0.08880508
Si       3.38500379      -7.52261443     -13.32724351  F      -0.18713269       0.21495311       0.17843521
Si       5.31929168      -3.41937020     -17.19581928  F      -0.15726156      -0.29216827      -0.18507505
Si       5.31929168      -4.78711827     -15.26153139  F      -0.16115718       0.12715121       0.08875015
Si      -4.35214774      -0.68387404     -15.26153139  F       0.13597343      -0.16055322       0.09310455
Si      -4.35214774      -2.05162212     -13.32724351  F       0.17827783       0.00754851       0.15760369
Si      -2.41785985      -3.41937020     -17.19581928  F      -0.11096479      -0.01918103      -0.10722983
Si      -2.41785985      -4.78711827     -15.26153139  F      -0.18365740      -0.18820762       0.23639388
Si      -0.48357197      -0.68387404     -15.26153139  F       0.08476496       0.01715741       0.08180668
Si      -0.48357197      -2.05162212     -13.32724351  F       0.09261116       0.09202441       0.24272120
Si       1.45071591      -3.41937020     -17.19581928  F      -0.11332524      -0.01027683      -0.13951929
Si       1.45071591      -4.78711827     -15.26153139  F      -0.04231857      -0.15294088       0.13454118
Si       3.38500379      -0.68387404     -15.26153139  F       0.12604328       0.09490841       0.09544077
Si       3.38500379      -2.05162212     -13.32724351  F       0.14692505       0.12435640       0.10708509
Si       5.31929168       2.05162212     -17.19581928  F      -0.18028429      -0.30671934      -0.18111430
Si       5.31929168       0.68387404     -15.26153139  F      -0.13597338       0.16055328       0.09310448
Si      -4.35214774       4.78711827     -15.26153139  F       0.16115724      -0.12715129       0.08875019
Si      -4.35214774       3.41937020     -13.32724351  F       0.17398654       0.12439349       0.31829048
Si      -2.41785985       2.05162212     -17.19581928  F      -0.06513215       0.05228528      -0.11643379
Si      -2.41785985       0.68387404     -15.26153139  F      -0.12604331      -0.09490840       0.09544078
Si      -0.48357197       4.78711827     -15.26153139  F       0.04231857       0.15294094       0.13454126
Si      -0.48357197       3.41937020     -13.32724351  F      -0.09886484      -0.42644419      -0.06486735
Si       1.45071591       2.05162212     -17.19581928  F      -0.11428941       0.00514687      -0.15488128
Si       1.45071591       0.68387404     -15.26153139  F      -0.08476499      -0.01715739       0.08180664
Si       3.38500379       4.78711827     -15.26153139  F       0.18365737       0.18820769       0.23639391
Si       3.38500379       3.41937020     -13.32724351  F       0.04743244       0.05896728       0.05989254
Si       5.31929168       7.52261443     -13.32724351  F      -0.03342962      -0.37325932      -0.53871758
Si       3.48310853       7.08681743     -11.95265085  T       0.00019181      -0.00002163      -0.00017563
Si      -2.51596451      -7.08681761     -11.95265083  T      -0.00019183       0.00002153      -0.00017600
Si      -1.99385611      -7.77861380      -9.55760125  T      -0.00045262       0.00013438      -0.00003347
Si      -2.41785985       7.52261443     -13.32724351  F       0.18713283      -0.21495278       0.17843508
Si      -2.41153249       6.16802724     -11.33746503  T       0.00059040      -0.00021740       0.00039825
Si      -0.13410126      -5.97990556     -11.45731636  T      -0.00100858       0.00034623      -0.00048776
Si       0.14447066      -6.82345084      -9.25523104  T       0.00014722      -0.00008747      -0.00024609
Si       1.45071591       7.52261443     -13.32724351  F       0.12825469      -0.48393202       0.85624475
Si       1.10124506       5.97990489     -11.45731660  T       0.00100960      -0.00034489      -0.00048721
Si       3.37867676      -6.16802698     -11.33746518  T      -0.00059084       0.00021722       0.00039854
Si       2.50666764      -7.14435116      -9.23284780  T      -0.00016722       0.00072227       0.00160278
Si       5.31929168      -3.41937020     -13.32724351  F      -0.17398637      -0.12439236       0.31828888
Si       5.20347772      -4.67402537     -11.25089227  T      -0.00109577      -0.00009710      -0.00037450
Si      -4.24302361      -0.84968592     -11.27543976  T       0.00012353      -0.00071707      -0.00036991
Si      -4.17168281      -2.10161451      -9.24731106  T      -0.00031621       0.00080393       0.00079683
Si      -2.41785985      -3.41937020     -13.32724351  F      -0.04743218      -0.05896780       0.05989239
Si      -2.16885197      -4.78893408     -11.37349809  T       0.00053254       0.00050350       0.00028899
Si      -0.47747885      -0.69625187     -11.30464918  T       0.00034252       0.00038526       0.00083608
Si      -0.47136206      -1.99724764      -9.25127241  T      -0.00078510      -0.00008851       0.00003094
Si       1.45071591      -3.41937020     -13.32724351  F       0.09886471       0.42644357      -0.06486676
Si       1.67980258      -4.55721717     -11.28175025  T       0.00051980      -0.00012120       0.00098543
Si       3.40388266      -0.66312763     -11.32105997  T       0.00026039      -0.00015035      -0.00026664
Si       3.45568103      -1.86150317      -9.22483504  T       0.00047806      -0.00004273       0.00022312
Si       5.31929168       2.05162212     -13.32724351  F      -0.17827776      -0.00754896       0.15760374
Si       5.21016772       0.84968562     -11.27543986  T      -0.00012423       0.00071681      -0.00037055
Si      -4.23633345       4.67402565     -11.25089193  T       0.00109587       0.00009588      -0.00037518
Si      -4.14612940       3.53605437      -9.15856278  T      -0.00057630      -0.00039309       0.00007045
Si      -2.41785985       2.05162212     -13.32724351  F      -0.14692512      -0.12435674       0.10708492
Si      -2.43673885       0.66312749     -11.32106002  T      -0.00025949       0.00015157      -0.00026610
Si      -0.71265897       4.55721677     -11.28175024  T      -0.00051900       0.00012223       0.00098578
Si      -0.57469675       3.22778872      -9.22737962  T      -0.00009463      -0.00007550       0.00051511
Si       1.45071591       2.05162212     -13.32724351  F      -0.09261130      -0.09202499       0.24272198
Si       1.44462263       0.69625168     -11.30464902  T      -0.00034204      -0.00038443       0.00083472
Si       3.13599611       4.78893385     -11.37349794  T      -0.00053361      -0.00050191       0.00028773
Si       3.27862858       3.53382013      -9.26942570  T      -0.00103121      -0.00041925      -0.00072107
Si       2.96100087       7.77861378      -9.55760116  T       0.00045228      -0.00013425      -0.00003405
Si       3.51554774       6.99403780      -7.10865560  T       0.00004734      -0.00067431       0.00014414
Si      -2.54840253      -6.99403780      -7.10865516  T      -0.00004897       0.00066762       0.00014434
Si      -2.00980461      -7.75029907      -4.76113749  T      -0.00087470       0.00032767      -0.00007619
Si      -1.53952275       7.14435113      -9.23284774  T       0.00016741      -0.00072152       0.00160253
Si      -2.11293876       6.15548527      -7.08480780  T       0.00010583       0.00120158      -0.00021399
Si      -0.29751989      -5.80333971      -7.12872010  T       0.00041054      -0.00040845      -0.00011541
Si       0.06896497      -6.68996507      -4.94174027  T       0.00049378       0.00061894       0.00020596
Si       0.82267412       6.82345079      -9.25523131  T      -0.00014692       0.00008731      -0.00024719
Si       1.26466414       5.80333948      -7.12872047  T      -0.00040220       0.00040650      -0.00011513
Si       3.08008407      -6.15548422      -7.08480836  T      -0.00010590      -0.00120214      -0.00021431
Si       2.32818289      -7.33427436      -5.04351691  T      -0.00009427       0.00043607       0.00044013
Si       5.11327419      -3.53605375      -9.15856346  T       0.00057635       0.00039268       0.00007176
Si       4.97270167      -4.75346834      -7.08975428  T      -0.00010069      -0.00017525       0.00081703
Si      -4.21513097      -0.98863548      -7.12762151  T       0.00011225       0.00020269      -0.00050473
Si      -4.16679333      -2.09895558      -4.98840232  T       0.00037491      -0.00016942      -0.00015559
Si      -2.31148451      -3.53382026      -9.26942571  T       0.00103331       0.00041562      -0.00071853
Si      -2.32783600      -4.62920175      -7.12496086  T      -0.00064014       0.00015990       0.00116848
Si      -0.46977287      -0.70477835      -7.16687350  T       0.00067250       0.00006444      -0.00076149
Si      -0.47170521      -1.90345287      -5.02649731  T       0.00027072      -0.00111763       0.00005266
Si       1.54184092      -3.22778876      -9.22737969  T       0.00009409       0.00007519       0.00051454
Si       1.56516574      -4.37202799      -7.09852490  T      -0.00061825       0.00046725       0.00038999
Si       3.43235203      -0.56698569      -7.16985746  T      -0.00085528       0.00076434       0.00040280
Si       3.47937800      -1.75863807      -5.06334497  T       0.00078983      -0.00090644       0.00067209
Si       5.13882719       2.10161441      -9.24731136  T       0.00031478      -0.00080202       0.00079588
Si       5.18227538       0.98863547      -7.12762216  T      -0.00011286      -0.00020480      -0.00050355
Si      -4.00555567       4.75346867      -7.08975363  T       0.00010007       0.00017524       0.00081702
Si      -3.99617145       3.57807895      -5.01119103  T      -0.00043284       0.00046562       0.00029968
Si      -2.48853690       1.86150312      -9.22483494  T      -0.00047792       0.00004201       0.00022406
Si      -2.46520775       0.56698562      -7.16985703  T       0.00085676      -0.00076378       0.00040193
Si      -0.59802138       4.37202812      -7.09852481  T       0.00061656      -0.00046846       0.00038922
Si      -0.58683237       3.08525990      -5.02974089  T      -0.00076406       0.00012806       0.00013512
Si       1.43850619       1.99724749      -9.25127229  T       0.00078462       0.00008867       0.00003033
Si       1.43691725       0.70477815      -7.16687360  T      -0.00067281      -0.00006421      -0.00076100
Si       3.29498079       4.62920102      -7.12496134  T       0.00063606      -0.00014841       0.00116974
Si       3.23870098       3.46487346      -4.98791727  T       0.00051263       0.00130752      -0.00087122
Si       2.97695080       7.75029851      -4.76113773  T       0.00087375      -0.00032761      -0.00007601
Si       3.91817502       6.76537265      -2.74512494  T       0.00014459      -0.00122573      -0.00060206
Si      -2.95102869      -6.76537337      -2.74512462  T      -0.00014460       0.00122621      -0.00060181
Si      -2.11025760      -7.58078219      -0.61892319  T       0.00048365      -0.00011723       0.00212766
Si      -1.36103673       7.33427454      -5.04351605  T       0.00009415      -0.00043481       0.00043843
Si      -1.84951856       6.41928546      -2.83327579  T       0.00007344       0.00042088      -0.00020748
Si       0.07248323      -5.57188940      -2.82303007  T       0.00012192      -0.00040142       0.00092113
Si       0.01479600      -6.61411505      -0.67113406  T       0.00012995       0.00088687       0.00021010
Si       0.89818103       6.68996476      -4.94174049  T      -0.00049326      -0.00061771       0.00020721
Si       0.89466261       5.57188980      -2.82302986  T      -0.00012175       0.00039982       0.00092070
Si       2.81666447      -6.41928473      -2.83327645  T      -0.00007255      -0.00042192      -0.00020693
Si       2.19417863      -7.47688244      -0.69562514  T      -0.00062193      -0.00048298       0.00075342
Si       4.96331725      -3.57807810      -5.01119176  T       0.00043290      -0.00046648       0.00029938
Si       4.23820053      -4.50720105      -2.86110625  T       0.00052882      -0.00017888      -0.00105942
Si      -4.18929925      -0.98342004      -2.86446117  T       0.00056399      -0.00001841       0.00037966
Si      -4.17125323      -2.07243221      -0.71296856  T       0.00054295      -0.00017768       0.00000440
Si      -2.27155591      -3.46487335      -4.98791676  T      -0.00051155      -0.00131126      -0.00087324
Si      -2.06105257      -4.59431599      -2.83209444  T      -0.00030748       0.00003386       0.00071392
Si      -0.48044912      -0.68071010      -2.89765997  T      -0.00033573       0.00077627      -0.00015039
Si      -0.47019590      -1.83778500      -0.72367848  T       0.00014302      -0.00064257       0.00110302
Si       1.55397723      -3.08526041      -5.02974046  T       0.00076480      -0.00012612       0.00013190
Si       1.88850930      -4.07628651      -2.84492683  T      -0.00005995       0.00176042      -0.00013422
Si       3.44039237      -0.60367668      -2.90039181  T      -0.00017892       0.00017045      -0.00053252
Si       3.51148496      -1.71029085      -0.71331287  T      -0.00035958      -0.00069380       0.00013394
Si       5.13393842       2.09895523      -4.98840284  T      -0.00037686       0.00017161      -0.00015534
Si       5.15644466       0.98342013      -2.86446135  T      -0.00056416       0.00001696       0.00037763
Si      -3.27105442       4.50720209      -2.86110579  T      -0.00052983       0.00017631      -0.00105946
Si      -3.90973837       3.62377788      -0.68969700  T      -0.00041554      -0.00014844       0.00058942
Si      -2.51223335       1.75863789      -5.06334446  T      -0.00078968       0.00090821       0.00067115
Si      -2.47324713       0.60367705      -2.90039151  T       0.00017829      -0.00017249      -0.00053225
Si      -0.92136330       4.07628668      -2.84492671  T       0.00005900      -0.00176139      -0.00013409
Si      -0.59913208       2.99322153      -0.70458492  T       0.00011540       0.00013352      -0.00034807
Si       1.43885037       1.90345261      -5.02649736  T      -0.00027150       0.00111845       0.00005265
Si       1.44759391       0.68071001      -2.89765965  T       0.00033735      -0.00077648      -0.00015258
Si       3.02819805       4.59431568      -2.83209459  T       0.00030817      -0.00003468       0.00071430
Si       3.21853462       3.40631391      -0.70787495  T      -0.00085578       0.00063840       0.00052335
Si       3.07740408       7.58078169      -0.61892354  T      -0.00047840       0.00011914       0.00212897
Si       3.98986969       6.66635769       1.45215941  T       0.00110394      -0.00128370       0.00025200
Si      -3.02272338      -6.66635801       1.45215923  T      -0.00110340       0.00128508       0.00025274
Si      -2.19437391      -7.50802968       3.58825950  T       0.00000920       0.00116987      -0.00026657
Si      -1.22703192       7.47688252      -0.69562508  T       0.00062589       0.00048305       0.00075525
Si      -1.75823782       6.44643512       1.46512061  T      -0.00060488       0.00039801       0.00009707
Si       0.06019002      -5.52892858       1.46243350  T      -0.00122941      -0.00036855       0.00033353
Si      -0.04937615      -6.58350563       3.61036290  T      -0.00144514      -0.00012457      -0.00031309
Si       0.95235117       6.61411481      -0.67113356  T      -0.00013920      -0.00088614       0.00020773
Si       0.90695657       5.52892872       1.46243372  T       0.00123009       0.00036661       0.00033312
Si       2.72538373      -6.44643445       1.46512060  T       0.00060519      -0.00039963       0.00009696
Si       2.11215199      -7.48853412       3.60800040  T      -0.00055911      -0.00050354       0.00062911
Si       4.87688436      -3.62377792      -0.68969683  T       0.00041551       0.00015023       0.00058814
Si       4.18148027      -4.55770616       1.46234059  T       0.00046303      -0.00013423       0.00057825
Si      -4.18997205      -0.99867542       1.44892980  T      -0.00054773      -0.00043256      -0.00002163
Si      -4.18534581      -2.03467733       3.62764195  T      -0.00056912      -0.00105537       0.00049909
Si      -2.25138849      -3.40631460      -0.70787481  T       0.00085520      -0.00063647       0.00052280
Si      -2.06414193      -4.52545018       1.45353325  T       0.00053735      -0.00072854       0.00004163
Si      -0.48077708      -0.67594901       1.44716657  T       0.00034603      -0.00017751      -0.00007292
Si      -0.47632048      -1.81959710       3.62428989  T       0.00008067       0.00017416       0.00105461
Si       1.56627786      -2.99322146      -0.70458563  T      -0.00011637      -0.00013266      -0.00034585
Si       1.87089280      -4.03069345       1.46129890  T      -0.00035355       0.00039213      -0.00035369
Si       3.44813973      -0.58786355       1.45758272  T      -0.00023149       0.00057426      -0.00017591
Si       3.49689768      -1.71374679       3.63708629  T      -0.00108016      -0.00020304       0.00068678
Si       5.13839915       2.07243121      -0.71296864  T      -0.00054355       0.00017989       0.00000523
Si       5.15711779       0.99867510       1.44892998  T       0.00054890       0.00043309      -0.00002169
Si      -3.21433477       4.55770710       1.46234017  T      -0.00045891       0.00013158       0.00057986
Si      -3.84323652       3.66553971       3.64154637  T      -0.00113572       0.00018619       0.00030631
Si      -2.54433922       1.71029074      -0.71331248  T       0.00036071       0.00069570       0.00013267
Si      -2.48099380       0.58786339       1.45758252  T       0.00022857      -0.00057647      -0.00017525
Si      -0.90374636       4.03069419       1.46129948  T       0.00034713      -0.00039154      -0.00035529
Si      -0.58212393       2.99332480       3.62697339  T      -0.00082468       0.00027988       0.00024864
Si       1.43734152       1.83778485      -0.72367838  T      -0.00014267       0.00064310       0.00110403
Si       1.44792284       0.67594917       1.44716673  T      -0.00034450       0.00017552      -0.00007388
Si       3.03128826       4.52545001       1.45353328  T      -0.00053752       0.00072523       0.00004138
Si       3.23561936       3.36887084       3.60649323  T       0.00014773      -0.00011357      -0.00080274
Si       3.16152000       7.50802874       3.58825996  T      -0.00000082      -0.00116585      -0.00026758
Si       4.08391312       6.62077447       5.66920885  T       0.00051977       0.00125009      -0.00013742
Si      -3.11676682      -6.62077490       5.66920845  T      -0.00051935      -0.00124815      -0.00013867
Si      -2.30940633      -7.47386160       7.79023933  T      -0.00132848       0.00027123       0.00013644
Si      -1.14500532       7.48853450       3.60800032  T       0.00056362       0.00050089       0.00062908
Si      -1.69931019       6.47244125       5.77336531  T       0.00137657       0.00199302      -0.00005482
Si       0.00439013      -5.53815750       5.76767409  T      -0.00071164      -0.00041941       0.00100704
Si      -0.13577308      -6.62090845       7.90147363  T       0.00038350       0.00017502      -0.00044477
Si       1.01652334       6.58350518       3.61036279  T       0.00143151       0.00012586      -0.00031170
Si       0.96275558       5.53815774       5.76767398  T       0.00071317       0.00041861       0.00100831
Si       2.66645643      -6.47244132       5.77336558  T      -0.00137857      -0.00199449      -0.00005512
Si       2.03706161      -7.51460718       7.90247331  T      -0.00062957      -0.00026014       0.00006959
Si       4.81038255      -3.66554016       3.64154665  T       0.00113660      -0.00018450       0.00030686
Si       4.14320129      -4.59663805       5.79584895  T       0.00171784       0.00033612       0.00075945
Si      -4.19295467      -0.95012914       5.79287365  T       0.00022060       0.00099271       0.00033153
Si      -4.17664263      -1.98584761       7.96588360  T      -0.00122012      -0.00010827       0.00000043
Si      -2.26847315      -3.36887131       3.60649301  T      -0.00014901       0.00011621      -0.00080253
Si      -2.10549401      -4.50671736       5.75189441  T      -0.00007017       0.00085340       0.00016168
Si      -0.48091108      -0.67467733       5.81035755  T       0.00007686      -0.00085825      -0.00044281
Si      -0.48677904      -1.83973113       7.97579964  T      -0.00042798       0.00124254       0.00041189
Si       1.54926963      -2.99332485       3.62697333  T       0.00082418      -0.00027948       0.00024888
Si       1.83279076      -4.06084180       5.78689356  T      -0.00103631       0.00034473      -0.00032468
Si       3.43103703      -0.61521144       5.81646824  T      -0.00011842       0.00080848       0.00001857
Si       3.46197281      -1.78321290       7.97867568  T      -0.00144017      -0.00074876       0.00047756
Si       5.15249189       2.03467681       3.62764211  T       0.00056939       0.00105542       0.00049995
Si       5.16010065       0.95012903       5.79287412  T      -0.00022074      -0.00099187       0.00033264
Si      -3.17605554       4.59663767       5.79584905  T      -0.00171580      -0.00033416       0.00075729
Si      -3.88369710       3.67778482       7.94009366  T      -0.00084005      -0.00041783      -0.00009524
Si      -2.52975168       1.71374630       3.63708593  T       0.00107986       0.00020513       0.00068729
Si      -2.46389127       0.61521157       5.81646812  T       0.00011747      -0.00080969       0.00001754
Si      -0.86564472       4.06084197       5.78689336  T       0.00103403      -0.00034534      -0.00032467
Si      -0.54319770       3.06314620       7.96905552  T      -0.00030618      -0.00021227      -0.00010048
Si       1.44346613       1.81959726       3.62428969  T      -0.00007971      -0.00017473       0.00105564
Si       1.44805646       0.67467726       5.81035716  T      -0.00007564       0.00085839      -0.00044065
Si       3.07263979       4.50671743       5.75189465  T       0.00006933      -0.00085646       0.00016198
Si       3.26031676       3.37069332       7.92270131  T      -0.00099321       0.00086612      -0.00113233
Si       3.27655196       7.47386151       7.79023963  T       0.00133008      -0.00027181       0.00013648
Si       4.39107228       6.53383282       9.73578908  T       0.00182079       0.00075593      -0.00169020
Si      -3.42392699      -6.53383272       9.73578812  T      -0.00182066      -0.00075544      -0.00168880
Si      -2.76979991      -6.74728386      12.08303753  T       0.00073941       0.00022339      -0.00030967
Si      -1.06991608       7.51460718       7.90247325  T       0.00063079       0.00025977       0.00006903
Si      -1.77266918       6.47520649      10.02230799  T       0.00001184      -0.00166743       0.00051141
Si      -0.10668693      -5.68402221      10.09791710  T       0.00055068      -0.00027294      -0.00079060
Si      -0.26962991      -7.04410451      12.10192632  T      -0.00161924       0.00031914       0.00058605
Si       1.10291879       6.62090844       7.90147370  T      -0.00038517      -0.00017469      -0.00044471
Si       1.07383213       5.68402247      10.09791730  T      -0.00055095       0.00027320      -0.00079061
Si       2.73981415      -6.47520672      10.02230845  T      -0.00001280       0.00166778       0.00051215
Si       2.19262300      -7.08924228      12.28456209  T      -0.00014724       0.00036973       0.00013948
Si       4.85084250      -3.67778532       7.94009398  T       0.00083915       0.00041825      -0.00009452
Si       4.18678181      -4.58655303      10.08124798  T      -0.00156761      -0.00151388       0.00009392
Si      -4.17383376      -0.86799264      10.11042755  T       0.00024073       0.00117816       0.00072004
Si      -4.18852085      -1.95684907      12.23535627  T      -0.00065043      -0.00023349       0.00005660
Si      -2.29317125      -3.37069345       7.92270090  T       0.00099169      -0.00086477      -0.00113169
Si      -2.18394152      -4.58485521      10.03678559  T      -0.00031146       0.00083891      -0.00039159
Si      -0.48355512      -0.68175259      10.15636185  T       0.00051820      -0.00172060       0.00037550
Si      -0.51852894      -1.99772229      12.24319990  T       0.00086863      -0.00164978      -0.00010936
Si       1.51034289      -3.06314593       7.96905577  T       0.00030762       0.00021163      -0.00010079
Si       1.77375183      -4.23611708      10.08501553  T       0.00018807      -0.00082640      -0.00025258
Si       3.39191821      -0.68722195      10.15693179  T       0.00045406      -0.00039509       0.00022825
Si       3.39288315      -1.96006706      12.26706110  T       0.00015319      -0.00012539      -0.00008391
Si       5.14378833       1.98584790       7.96588441  T       0.00122049       0.00010717      -0.00000200
Si       5.14097882       0.86799278      10.11042795  T      -0.00024025      -0.00117864       0.00071986
Si      -3.21963693       4.58655287      10.08124733  T       0.00156786       0.00151375       0.00009560
Si      -4.05523104       3.65255490      12.18747372  T       0.00065853      -0.00092773       0.00021865
Si      -2.49482723       1.78321269       7.97867534  T       0.00143957       0.00074996       0.00047796
Si      -2.42477312       0.68722222      10.15693142  T      -0.00045485       0.00039409       0.00022971
Si      -0.80660669       4.23611734      10.08501522  T      -0.00018815       0.00082617      -0.00025161
Si      -0.48025863       3.30988035      12.29716337  T       0.00047496      -0.00084043      -0.00002589
Si       1.45392417       1.83973125       7.97579964  T       0.00042871      -0.00124320       0.00041157
Si       1.45069988       0.68175260      10.15636202  T      -0.00051797       0.00172042       0.00037480
Si       3.15108662       4.58485539      10.03678589  T       0.00031135      -0.00084057      -0.00039145
Si       3.36470183       3.49863647      12.23199653  T       0.00018613       0.00085491       0.00023966
Si       3.73694484       6.74728415      12.08303811  T      -0.00073998      -0.00022297      -0.00030889
Si       5.31929168       6.15486635      14.29438745  F      -0.71875354       0.30620601      -0.14791573
Si      -4.35214774      -6.15486635      14.29438745  F       0.71875368      -0.30620636      -0.14791521
Si      -4.35214774      -7.52261443      16.22867533  F       0.24150107       0.80067054       0.04476534
Si      -1.22547847       7.08924081      12.28456183  T       0.00014815      -0.00036900       0.00014038
Si      -2.41785985       6.15486635      14.29438745  F       0.34859387       0.10521945       0.05826658
Si      -0.48357197      -6.15486635      14.29438745  F       0.11763731       0.41579918       0.11962146
Si      -0.48357197      -7.52261443      16.22867533  F      -0.02429251       0.04877419       0.02975232
Si       1.23677475       7.04410492      12.10192664  T       0.00161912      -0.00031911       0.00058459
Si       1.45071591       6.15486635      14.29438745  F      -0.11763701      -0.41579946       0.11962265
Si       3.38500379      -6.15486635      14.29438745  F      -0.34859458      -0.10521981       0.05826627
Si       3.38500379      -7.52261443      16.22867533  F      -0.20903264       0.20345425       0.01952601
Si       5.02237573      -3.65255501      12.18747412  T      -0.00065859       0.00092908       0.00021771
Si       5.31929168      -4.78711827      14.29438745  F      -0.40284335       0.03527996      -0.46700521
Si      -4.35214774      -0.68387404      14.29438745  F       0.24423065      -0.21421030      -0.28352330
Si      -4.35214774      -2.05162212      16.22867533  F       0.12244586       0.17398425      -0.05936028
Si      -2.39755769      -3.49863701      12.23199647  T      -0.00018552      -0.00085291       0.00023878
Si      -2.41785985      -4.78711827      14.29438745  F      -0.13110620      -0.04879784      -0.18170367
Si      -0.48357197      -0.68387404      14.29438745  F       0.03936132      -0.00947699      -0.30017480
Si      -0.48357197      -2.05162212      16.22867533  F       0.06896087      -0.04558334      -0.06562439
Si       1.44740334      -3.30987977      12.29716332  T      -0.00047591       0.00083939      -0.00002479
Si       1.45071591      -4.78711827      14.29438745  F       0.00417361       0.09890326      -0.32951293
Si       3.38500379      -0.68387404      14.29438745  F       0.19096159       0.15806532      -0.03297311
Si       3.38500379      -2.05162212      16.22867533  F       0.10367541      -0.09925033      -0.08347689
Si       5.15566551       1.95684923      12.23535633  T       0.00065075       0.00023375       0.00005814
Si       5.31929168       0.68387404      14.29438745  F      -0.24423027       0.21421026      -0.28352289
Si      -4.35214774       4.78711827      14.29438745  F       0.40284404      -0.03528105      -0.46700699
Si      -4.35214774       3.41937020      16.22867533  F       0.12442897       0.08519728      -0.05742176
Si      -2.42573810       1.96006731      12.26706095  T      -0.00015483       0.00012437      -0.00008339
Si      -2.41785985       0.68387404      14.29438745  F      -0.19096072      -0.15806440      -0.03297419
Si      -0.48357197       4.78711827      14.29438745  F      -0.00417296      -0.09890230      -0.32951241
Si      -0.48357197       3.41937020      16.22867533  F       0.07391519      -0.13796151       0.01027957
Si       1.48567298       1.99772216      12.24320005  T      -0.00086753       0.00164982      -0.00010997
Si       1.45071591       0.68387404      14.29438745  F      -0.03936137       0.00947658      -0.30017435
Si       3.38500379       4.78711827      14.29438745  F       0.13110631       0.04879673      -0.18170473
Si       3.38500379       3.41937020      16.22867533  F       0.14371598      -0.18072219       0.03956562
Si       5.31929168       7.52261443      16.22867533  F      -0.24150112      -0.80066998       0.04476543
Si       5.31929168       6.15486635      18.16296322  F      -0.40408553       0.72367085       0.21458965
Si      -4.35214774      -6.15486635      18.16296322  F       0.40408559      -0.72367096       0.21458968
Si      -4.35214774      -7.52261443      20.09725110  F       0.53939208       0.74270108      -1.09828384
Si      -2.41785985       7.52261443      16.22867533  F       0.20903279      -0.20345418       0.01952589
Si      -2.41785985       6.15486635      18.16296322  F      -0.02276163       0.23851507       0.17052585
Si      -0.48357197      -6.15486635      18.16296322  F       0.04676286      -0.26745937       0.06411636
Si      -0.48357197      -7.52261443      20.09725110  F       0.01762269       0.55079646      -0.75896476
Si       1.45071591       7.52261443      16.22867533  F       0.02429256      -0.04877413       0.02975239
Si       1.45071591       6.15486635      18.16296322  F      -0.04676290       0.26745935       0.06411636
Si       3.38500379      -6.15486635      18.16296322  F       0.02276165      -0.23851509       0.17052585
Si       3.38500379      -7.52261443      20.09725110  F      -0.39551748       0.57460077      -0.86246812
Si       5.31929168      -3.41937020      16.22867533  F      -0.12442890      -0.08519725      -0.05742177
Si       5.31929168      -4.78711827      18.16296322  F      -0.22507976       0.27846239       0.21326371
Si      -4.35214774      -0.68387404      18.16296322  F       0.17493526      -0.32957165       0.18238259
Si      -4.35214774      -2.05162212      20.09725110  F       0.81585099      -0.00832788      -0.80545695
Si      -2.41785985      -3.41937020      16.22867533  F      -0.14371597       0.18072233       0.03956559
Si      -2.41785985      -4.78711827      18.16296322  F      -0.11723297      -0.07761625       0.16337541
Si      -0.48357197      -0.68387404      18.16296322  F       0.10905446      -0.04369622       0.12547108
Si      -0.48357197      -2.05162212      20.09725110  F       0.08873417      -0.23119568      -0.13851005
Si       1.45071591      -3.41937020      16.22867533  F      -0.07391519       0.13796132       0.01027946
Si       1.45071591      -4.78711827      18.16296322  F      -0.12774024       0.00766828       0.22306958
Si       3.38500379      -0.68387404      18.16296322  F       0.07924952      -0.00331082       0.08454951
Si       3.38500379      -2.05162212      20.09725110  F       0.18292887      -0.32437884      -0.17900223
Si       5.31929168       2.05162212      16.22867533  F      -0.12244572      -0.17398417      -0.05936032
Si       5.31929168       0.68387404      18.16296322  F      -0.17493525       0.32957163       0.18238261
Si      -4.35214774       4.78711827      18.16296322  F       0.22507976      -0.27846242       0.21326372
Si      -4.35214774       3.41937020      20.09725110  F       0.77779328      -0.02627131      -0.78453671
Si      -2.41785985       2.05162212      16.22867533  F      -0.10367540       0.09925026      -0.08347686
Si      -2.41785985       0.68387404      18.16296322  F      -0.07924957       0.00331083       0.08454948
Si      -0.48357197       4.78711827      18.16296322  F       0.12774021      -0.00766827       0.22306960
Si      -0.48357197       3.41937020      20.09725110  F       0.08912238      -0.21658004      -0.10577252
Si       1.45071591       2.05162212      16.22867533  F      -0.06896086       0.04558338      -0.06562443
Si       1.45071591       0.68387404      18.16296322  F      -0.10905448       0.04369619       0.12547109
Si       3.38500379       4.78711827      18.16296322  F       0.11723297       0.07761621       0.16337545
Si       3.38500379       3.41937020      20.09725110  F       0.23038190      -0.29710606      -0.15305707
