360
Lattice="11.605727294873521 0.0 0.0 0.0 16.412976941613742 0.0 0.0 0.0 38.6857576495784" Properties=species:S:1:pos:R:3:move_mask:L:1:forces:R:3 energy=-1735.3477245880867 free_energy=-1735.3477245880867 pbc="F F F"
Si       5.31929168       7.52261443      20.09725110  F      -0.53942091      -0.74269812      -1.09828062
Si       5.31929168       6.15486635     -19.13010716  F      -0.85629869       0.15948301       1.05506987
Si      -4.35214774      -6.15486635     -19.13010716  F       0.85629869      -0.15948300       1.05506988
Si      -4.35214774      -7.52261443     -17.19581928  F       0.06886333       0.94795628      -0.22245596
Si      -2.41785985       7.52261443      20.09725110  F       0.39551727      -0.57459982      -0.86246458
Si      -2.41785985       6.15486635     -19.13010716  F      -0.11517411      -0.24160068       0.66496896
Si      -0.48357197      -6.15486635     -19.13010716  F       0.05452337       0.08018144       0.63969393
Si      -0.48357197      -7.52261443     -17.19581928  F      -0.00082032       0.36719470      -0.24910413
Si       1.45071591       7.52261443      20.09725110  F      -0.01761110      -0.55077633      -0.75894413
Si       1.45071591       6.15486635     -19.13010716  F      -0.05452337      -0.08018145       0.63969394
Si       3.38500379      -6.15486635     -19.13010716  F       0.11517411       0.24160068       0.66496896
Si       3.38500379      -7.52261443     -17.19581928  F      -0.10921551       0.43331057      -0.17390447
Si       5.31929168      -3.41937020      20.09725110  F      -0.77779399       0.02627016      -0.78453349
Si       5.31929168      -4.78711827     -19.13010716  F      -0.80254363       0.03037478       0.77618872
Si      -4.35214774      -0.68387404     -19.13010716  F       0.80685858       0.00408634       0.80497931
Si      -4.35214774      -2.05162212     -17.19581928  F       0.18029285       0.30668862      -0.18107879
Si      -2.41785985      -3.41937020      20.09725110  F      -0.23037803       0.29712787      -0.15305377
Si      -2.41785985      -4.78711827     -19.13010716  F      -0.23048232      -0.26315331       0.16839967
Si      -0.48357197      -0.68387404     -19.13010716  F       0.08828726       0.22133733       0.11685607
Si      -0.48357197      -2.05162212     -17.19581928  F       0.11428150      -0.00514244      -0.15484807
Si       1.45071591      -3.41937020      20.09725110  F      -0.08911468       0.21658409      -0.10576985
Si       1.45071591      -4.78711827     -19.13010716  F      -0.08746015      -0.07355232       0.07515439
Si       3.38500379      -0.68387404     -19.13010716  F       0.19614285       0.34265213       0.16511190
Si       3.38500379      -2.05162212     -17.19581928  F       0.06512089      -0.05232432      -0.11641225
Si       5.31929168       2.05162212      20.09725110  F      -0.81584518       0.00833719      -0.80544343
Si       5.31929168       0.68387404     -19.13010716  F      -0.80685858      -0.00408634       0.80497930
Si      -4.35214774       4.78711827     -19.13010716  F       0.80254364      -0.03037478       0.77618873
Si      -4.35214774       3.41937020     -17.19581928  F       0.15723397       0.29214468      -0.18500261
Si      -2.41785985       2.05162212      20.09725110  F      -0.18293339       0.32438245      -0.17898824
Si      -2.41785985       0.68387404     -19.13010716  F      -0.19614285      -0.34265212       0.16511191
Si      -0.48357197       4.78711827     -19.13010716  F       0.08746016       0.07355232       0.07515439
Si      -0.48357197       3.41937020     -17.19581928  F       0.11327868       0.01025642      -0.13946439
Si       1.45071591       2.05162212      20.09725110  F      -0.08872503       0.23119069      -0.13849671
Si       1.45071591       0.68387404     -19.13010716  F      -0.08828726      -0.22133733       0.11685607
Si       3.38500379       4.78711827     -19.13010716  F       0.23048232       0.26315331       0.16839967
Si       3.38500379       3.41937020     -17.19581928  F       0.11094556       0.01914142      -0.10721029
Si       5.31929168       7.52261443     -17.19581928  F      -0.06886333      -0.94795627      -0.22245598
Si       5.31929168       6.15486635     -15.26153139  F      -0.45881286       0.44020026       0.07190099
Si      -4.35214774      -6.15486635     -15.26153139  F       0.45881289      -0.44020026       0.07190099
Si      -4.35214774      -7.52261443     -13.32724351  F       0.03311837       0.37339556      -0.53895055
Si      -2.41785985       7.52261443     -17.19581928  F       0.10921550      -0.43331056      -0.17390447
Si      -2.41785985       6.15486635     -15.26153139  F      -0.02749621      -0.12782762       0.08911260
Si      -0.48357197      -6.15486635     -15.26153139  F      -0.13262499       0.02148556      -0.02507397
Si      -0.48357197      -7.52261443     -13.32724351  F      -0.12876768       0.48515989       0.85714248
Si       1.45071591       7.52261443     -17.19581928  F       0.00082031      -0.36719470      -0.24910411
Si       1.45071591       6.15486635     -15.26153139  F       0.13262501      -0.02148561      -0.02507391
Si       3.38500379      -6.15486635     -15.26153139  F       0.02749626       0.12782758       0.08911255
Si       3.38500379      -7.52261443     -13.32724351  F      -0.18743686       0.21454660       0.17894718
Si       5.31929168      -3.41937020     -17.19581928  F      -0.15723398      -0.29214469      -0.18500262
Si       5.31929168      -4.78711827     -15.26153139  F      -0.16140375       0.12703462       0.08859608
Si      -4.35214774      -0.68387404     -15.26153139  F       0.13601257      -0.16040719       0.09310781
Si      -4.35214774      -2.05162212     -13.32724351  F       0.17864997       0.00779114       0.15830416
Si      -2.41785985      -3.41937020     -17.19581928  F      -0.11094557      -0.01914142      -0.10721028
Si      -2.41785985      -4.78711827     -15.26153139  F      -0.18357364      -0.18832651       0.23650223
Si      -0.48357197      -0.68387404     -15.26153139  F       0.08473588       0.01719285       0.08181775
Si      -0.48357197      -2.05162212     -13.32724351  F       0.09269256       0.09279871       0.24414484
Si       1.45071591      -3.41937020     -17.19581928  F      -0.11327869      -0.01025643      -0.13946440
Si       1.45071591      -4.78711827     -15.26153139  F      -0.04240395      -0.15300338       0.13458674
Si       3.38500379      -0.68387404     -15.26153139  F       0.12590096       0.09511688       0.09559580
Si       3.38500379      -2.05162212     -13.32724351  F       0.14701963       0.12445516       0.10735921
Si       5.31929168       2.05162212     -17.19581928  F      -0.18029285      -0.30668864      -0.18107880
Si       5.31929168       0.68387404     -15.26153139  F      -0.13601252       0.16040726       0.09310777
Si      -4.35214774       4.78711827     -15.26153139  F       0.16140384      -0.12703463       0.08859608
Si      -4.35214774       3.41937020     -13.32724351  F       0.17496417       0.12456972       0.31932878
Si      -2.41785985       2.05162212     -17.19581928  F      -0.06512089       0.05232433      -0.11641225
Si      -2.41785985       0.68387404     -15.26153139  F      -0.12590093      -0.09511690       0.09559583
Si      -0.48357197       4.78711827     -15.26153139  F       0.04240395       0.15300341       0.13458675
Si      -0.48357197       3.41937020     -13.32724351  F      -0.09895060      -0.42594438      -0.06323799
Si       1.45071591       2.05162212     -17.19581928  F      -0.11428152       0.00514243      -0.15484808
Si       1.45071591       0.68387404     -15.26153139  F      -0.08473588      -0.01719283       0.08181774
Si       3.38500379       4.78711827     -15.26153139  F       0.18357367       0.18832647       0.23650220
Si       3.38500379       3.41937020     -13.32724351  F       0.04799749       0.05811967       0.05957214
Si       5.31929168       7.52261443     -13.32724351  F      -0.03311809      -0.37339549      -0.53895076
Si       3.48335139       7.08647195     -11.95257273  T      -0.00037921      -0.00008745      -0.00021358
Si      -2.51620746      -7.08647193     -11.95257266  T       0.00037950       0.00008763      -0.00021363
Si      -1.99553818      -7.77715487      -9.55722358  T       0.00028684      -0.00009285      -0.00001271
Si      -2.41785985       7.52261443     -13.32724351  F       0.18743690      -0.21454643       0.17894699
Si      -2.41034691       6.16866499     -11.33688571  T      -0.00009756      -0.00033958       0.00000750
Si      -0.13469427      -5.97932008     -11.45737946  T       0.00002391      -0.00065091      -0.00004034
Si       0.14303900      -6.82249855      -9.25496751  T       0.00036657       0.00003276      -0.00001059
Si       1.45071591       7.52261443     -13.32724351  F       0.12876744      -0.48516031       0.85714312
Si       1.10183840       5.97931999     -11.45737918  T      -0.00002407       0.00065146      -0.00004114
Si       3.37749127      -6.16866485     -11.33688577  T       0.00009717       0.00033952       0.00000730
Si       2.50505590      -7.14353026      -9.23146578  T      -0.00014227       0.00006959      -0.00021965
Si       5.31929168      -3.41937020     -13.32724351  F      -0.17496387      -0.12456935       0.31932791
Si       5.20114777      -4.67348501     -11.25060537  T       0.00049379      -0.00022159       0.00026953
Si      -4.24251440      -0.84988551     -11.27520642  T      -0.00013916      -0.00015407      -0.00025886
Si      -4.17120569      -2.10100111      -9.24649971  T       0.00015527       0.00016517      -0.00023614
Si      -2.41785985      -3.41937020     -13.32724351  F      -0.04799745      -0.05811971       0.05957230
Si      -2.16930211      -4.78850774     -11.37326557  T       0.00018552       0.00019602       0.00041918
Si      -0.47748702      -0.69616685     -11.30419471  T       0.00006106      -0.00015566      -0.00034501
Si      -0.47124050      -1.99688397      -9.25057434  T      -0.00027572      -0.00021819       0.00028174
Si       1.45071591      -3.41937020     -13.32724351  F       0.09895070       0.42594412      -0.06323775
Si       1.67955479      -4.55691466     -11.28121850  T       0.00007374      -0.00007683      -0.00010088
Si       3.40378476      -0.66343620     -11.32060280  T       0.00029650      -0.00003635      -0.00009566
Si       3.45574897      -1.86150472      -9.22381778  T       0.00006852      -0.00018374      -0.00000922
Si       5.31929168       2.05162212     -13.32724351  F      -0.17864978      -0.00779127       0.15830373
Si       5.20965868       0.84988529     -11.27520660  T       0.00013922       0.00015475      -0.00025868
Si      -4.23400321       4.67348491     -11.25060513  T      -0.00049394       0.00022134       0.00026892
Si      -4.14589577       3.53643592      -9.15754923  T       0.00048006       0.00002581      -0.00012588
Si      -2.41785985       2.05162212     -13.32724351  F      -0.14701951      -0.12445541       0.10735949
Si      -2.43664061       0.66343616     -11.32060268  T      -0.00029678       0.00003651      -0.00009604
Si      -0.71241070       4.55691456     -11.28121850  T      -0.00007341       0.00007719      -0.00010078
Si      -0.57466835       3.22775203      -9.22635969  T       0.00025726       0.00000410       0.00018807
Si       1.45071591       2.05162212     -13.32724351  F      -0.09269253      -0.09279891       0.24414488
Si       1.44463107       0.69616675     -11.30419474  T      -0.00006089       0.00015598      -0.00034482
Si       3.13644628       4.78850777     -11.37326562  T      -0.00018557      -0.00019642       0.00041940
Si       3.27835658       3.53343952      -9.26894949  T       0.00025334       0.00010001      -0.00000475
Si       2.96268262       7.77715485      -9.55722359  T      -0.00028674       0.00009280      -0.00001266
Si       3.51657688       6.99325277      -7.10726225  T       0.00002434      -0.00022368       0.00024119
Si      -2.54943191      -6.99325318      -7.10726200  T      -0.00002391       0.00022641       0.00024113
Si      -2.01135039      -7.74793699      -4.75883636  T       0.00000786       0.00013902       0.00000189
Si      -1.53791137       7.14353050      -9.23146577  T       0.00014231      -0.00006987      -0.00021889
Si      -2.11180920       6.15570755      -7.08316282  T      -0.00010643       0.00017250       0.00000231
Si      -0.29864882      -5.80317371      -7.12795587  T       0.00044342       0.00027315       0.00022426
Si       0.06777362      -6.68821841      -4.94014072  T      -0.00033470      -0.00013019       0.00052667
Si       0.82410549       6.82249857      -9.25496723  T      -0.00036652      -0.00003289      -0.00001071
Si       1.26579367       5.80317355      -7.12795570  T      -0.00044619      -0.00027246       0.00022412
Si       3.07895401      -6.15570717      -7.08316309  T       0.00010647      -0.00017234       0.00000294
Si       2.32661827      -7.33360097      -5.04141539  T       0.00018154       0.00003754       0.00003588
Si       5.11304025      -3.53643599      -9.15754953  T      -0.00047994      -0.00002520      -0.00012630
Si       4.97175947      -4.75394881      -7.08849782  T      -0.00025607       0.00007980       0.00004356
Si      -4.21455011      -0.98839663      -7.12659848  T      -0.00005201      -0.00002583       0.00000194
Si      -4.16540977      -2.09841089      -4.98716590  T      -0.00014947      -0.00015211       0.00061031
Si      -2.31121234      -3.53343967      -9.26894929  T      -0.00025374      -0.00009891      -0.00000505
Si      -2.32870873      -4.62855096      -7.12415979  T       0.00005494       0.00022378       0.00039808
Si      -0.46965154      -0.70484144      -7.16573645  T       0.00021085       0.00002046      -0.00020759
Si      -0.47161490      -1.90349090      -5.02503958  T       0.00036857      -0.00002815       0.00000409
Si       1.54181264      -3.22775186      -9.22635977  T      -0.00025728      -0.00000457       0.00018828
Si       1.56430808      -4.37196519      -7.09719992  T       0.00007786       0.00010201      -0.00001015
Si       3.43196401      -0.56732934      -7.16852437  T       0.00000341       0.00022858      -0.00016217
Si       3.47994923      -1.75909351      -5.06183287  T      -0.00046685      -0.00005497       0.00021875
Si       5.13835002       2.10100128      -9.24650010  T      -0.00015438      -0.00016640      -0.00023599
Si       5.18169490       0.98839650      -7.12659900  T       0.00005216       0.00002644       0.00000208
Si      -4.00461427       4.75394866      -7.08849733  T       0.00025615      -0.00007965       0.00004293
Si      -3.99607834       3.57913254      -5.00963639  T       0.00006615      -0.00033885       0.00012331
Si      -2.48860450       1.86150468      -9.22381764  T      -0.00006894       0.00018386      -0.00000900
Si      -2.46481952       0.56732962      -7.16852400  T      -0.00000356      -0.00022947      -0.00016199
Si      -0.59716358       4.37196531      -7.09719987  T      -0.00007761      -0.00010195      -0.00000980
Si      -0.58703630       3.08515814      -5.02829093  T       0.00022190       0.00018804       0.00048410
Si       1.43838467       1.99688399      -9.25057438  T       0.00027580       0.00021811       0.00028132
Si       1.43679596       0.70484162      -7.16573654  T      -0.00021064      -0.00002102      -0.00020773
Si       3.29585326       4.62855096      -7.12416002  T      -0.00005326      -0.00022779       0.00039776
Si       3.23820441       3.46543478      -4.98658774  T       0.00023797      -0.00030767       0.00008005
Si       2.97849585       7.74793655      -4.75883646  T      -0.00000746      -0.00013861       0.00000156
Si       3.91917784       6.76389985      -2.74202021  T      -0.00021754      -0.00007485      -0.00005756
Si      -2.95203195      -6.76390031      -2.74201983  T       0.00021757       0.00007496      -0.00005792
Si      -2.11187058      -7.57885340      -0.61508919  T       0.00004222       0.00051371      -0.00056459
Si      -1.35947282       7.33360117      -5.04141524  T      -0.00018193      -0.00003745       0.00003605
Si      -1.84810079       6.41923766      -2.83078139  T       0.00032623       0.00035873       0.00007806
Si       0.07276383      -5.57120776      -2.82061776  T      -0.00023171      -0.00022585       0.00038095
Si       0.01362991      -6.61302236      -0.66837135  T      -0.00049306       0.00012394      -0.00030702
Si       0.89937170       6.68821832      -4.94014054  T       0.00033449       0.00013002       0.00052647
Si       0.89438163       5.57120763      -2.82061765  T       0.00023209       0.00022565       0.00038059
Si       2.81524626      -6.41923732      -2.83078153  T      -0.00032557      -0.00035885       0.00007769
Si       2.19258719      -7.47686634      -0.69268725  T       0.00013560      -0.00002437      -0.00028594
Si       4.96322363      -3.57913222      -5.00963706  T      -0.00006687       0.00033822       0.00012426
Si       4.23784737      -4.50776677      -2.85925851  T      -0.00040082       0.00016801       0.00045427
Si      -4.18732630      -0.98414994      -2.86244870  T      -0.00047348       0.00032188      -0.00001189
Si      -4.17017468      -2.07213235      -0.71033663  T      -0.00006690      -0.00002943      -0.00020891
Si      -2.27105935      -3.46543501      -4.98658742  T      -0.00023881       0.00030849       0.00007999
Si      -2.06079497      -4.59359022      -2.82964992  T      -0.00006782       0.00005867       0.00032814
Si      -0.48056057      -0.68053128      -2.89588749  T      -0.00004910       0.00008985       0.00036334
Si      -0.46982610      -1.83736661      -0.72110255  T       0.00003452      -0.00015036       0.00049943
Si       1.55418107      -3.08515816      -5.02829099  T      -0.00022179      -0.00018802       0.00048357
Si       1.88857742      -4.07512524      -2.84290882  T       0.00016394      -0.00015071       0.00014676
Si       3.44007437      -0.60459613      -2.89845192  T      -0.00001616       0.00031214       0.00026242
Si       3.51163006      -1.70998008      -0.71038708  T      -0.00049573      -0.00064738      -0.00007890
Si       5.13255475       2.09841075      -4.98716636  T       0.00015023       0.00015142       0.00061006
Si       5.15447162       0.98414967      -2.86244922  T       0.00047304      -0.00032142      -0.00001142
Si      -3.27070184       4.50776705      -2.85925839  T       0.00040073      -0.00016707       0.00045549
Si      -3.90819549       3.62474011      -0.68681249  T      -0.00045892      -0.00015744      -0.00041585
Si      -2.51280452       1.75909343      -5.06183221  T       0.00046778       0.00005498       0.00021830
Si      -2.47292918       0.60459592      -2.89845133  T       0.00001606      -0.00031172       0.00026162
Si      -0.92143205       4.07512531      -2.84290859  T      -0.00016384       0.00015095       0.00014598
Si      -0.59941751       2.99303439      -0.70205953  T       0.00029773      -0.00011583       0.00010241
Si       1.43875975       1.90349093      -5.02503974  T      -0.00036909       0.00002794       0.00000436
Si       1.44770561       0.68053092      -2.89588779  T       0.00004960      -0.00008899       0.00036401
Si       3.02794042       4.59358999      -2.82965022  T       0.00006730      -0.00005869       0.00032842
Si       3.21772667       3.40627152      -0.70500809  T       0.00017303      -0.00027043       0.00018703
Si       3.07901685       7.57885271      -0.61508927  T      -0.00004373      -0.00051401      -0.00056495
Si       3.99404255       6.66453147       1.45464811  T      -0.00072200      -0.00036869       0.00010158
Si      -3.02689642      -6.66453191       1.45464806  T       0.00072159       0.00036789       0.00010130
Si      -2.19733072      -7.50700855       3.58966883  T      -0.00023706       0.00035122       0.00021531
Si      -1.22544079       7.47686678      -0.69268729  T      -0.00013826       0.00002450      -0.00028601
Si      -1.75780845       6.44714387       1.46804534  T       0.00062047       0.00034476       0.00018094
Si       0.05953804      -5.52879548       1.46538653  T      -0.00034496       0.00019694      -0.00012193
Si      -0.05159214      -6.58438991       3.61248256  T       0.00017967       0.00029559       0.00022443
Si       0.95351593       6.61302219      -0.66837131  T       0.00049633      -0.00012417      -0.00030692
Si       0.90760760       5.52879521       1.46538652  T       0.00034620      -0.00019590      -0.00012180
Si       2.72495506      -6.44714359       1.46804533  T      -0.00062178      -0.00034574       0.00018026
Si       2.10996109      -7.48960175       3.61025600  T      -0.00007368      -0.00018210       0.00025773
Si       4.87534110      -3.62473990      -0.68681252  T       0.00045873       0.00015758      -0.00041682
Si       4.18130968      -4.55861466       1.46582915  T      -0.00027484      -0.00017573      -0.00014404
Si      -4.18966646      -0.99914619       1.45197906  T      -0.00035746       0.00054932       0.00008792
Si      -4.18688557      -2.03531142       3.63071332  T       0.00020084      -0.00003261      -0.00007889
Si      -2.25058128      -3.40627162      -0.70500792  T      -0.00017274       0.00027020       0.00018731
Si      -2.06461816      -4.52542767       1.45644754  T      -0.00004877      -0.00010843       0.00016910
Si      -0.48073266      -0.67602319       1.45008165  T       0.00018410       0.00005271       0.00029205
Si      -0.47630738      -1.82023051       3.62704127  T       0.00004508       0.00047586      -0.00004172
Si       1.56656291      -2.99303430      -0.70205969  T      -0.00029698       0.00011473       0.00010282
Si       1.87071565      -4.03115603       1.46381435  T       0.00002106       0.00002660       0.00026429
Si       3.44816109      -0.58781870       1.46083595  T      -0.00016051       0.00018390      -0.00008959
Si       3.49681563      -1.71445907       3.64009510  T      -0.00055374      -0.00030753       0.00021561
Si       5.13732013       2.07213230      -0.71033701  T       0.00006674       0.00002875      -0.00020927
Si       5.15681183       0.99914633       1.45197886  T       0.00035692      -0.00054980       0.00008785
Si      -3.21416305       4.55861433       1.46582926  T       0.00027208       0.00017867      -0.00014420
Si      -3.84343041       3.66625432       3.64485092  T      -0.00023835      -0.00000614       0.00021065
Si      -2.54448468       1.70998018      -0.71038686  T       0.00049591       0.00064717      -0.00007859
Si      -2.48101566       0.58781865       1.46083612  T       0.00016104      -0.00018314      -0.00009009
Si      -0.90356972       4.03115580       1.46381453  T      -0.00001935      -0.00002737       0.00026356
Si      -0.58212661       2.99417059       3.62956153  T       0.00044400      -0.00013837      -0.00010035
Si       1.43697147       1.83736651      -0.72110276  T      -0.00003483       0.00015003       0.00049931
Si       1.44787808       0.67602319       1.45008156  T      -0.00018410      -0.00005277       0.00029208
Si       3.03176388       4.52542733       1.45644759  T       0.00004873       0.00010897       0.00016951
Si       3.23649799       3.36856611       3.60911849  T      -0.00028572      -0.00014423      -0.00035923
Si       3.16447680       7.50700826       3.58966888  T       0.00023513      -0.00035244       0.00021539
Si       4.08636929       6.62097384       5.67131228  T       0.00034164      -0.00016540      -0.00047413
Si      -3.11922348      -6.62097403       5.67131194  T      -0.00034208       0.00016447      -0.00047379
Si      -2.31200638      -7.47439709       7.79219965  T      -0.00059110       0.00004568      -0.00028713
Si      -1.14281462       7.48960234       3.61025619  T       0.00007063       0.00018134       0.00025763
Si      -1.69801155       6.47400625       5.77555414  T       0.00023832       0.00010827      -0.00007670
Si       0.00244019      -5.53936822       5.76988191  T      -0.00017652       0.00007862      -0.00003750
Si      -0.13772279      -6.62275780       7.90310972  T      -0.00008464       0.00032032      -0.00037132
Si       1.01873788       6.58438964       3.61248257  T      -0.00017506      -0.00029499       0.00022412
Si       0.96470559       5.53936814       5.76988191  T       0.00017662      -0.00007962      -0.00003723
Si       2.66515768      -6.47400647       5.77555409  T      -0.00023876      -0.00010652      -0.00007585
Si       2.03531466      -7.51603163       7.90445539  T      -0.00046660      -0.00046971      -0.00023391
Si       4.81057598      -3.66625446       3.64485090  T       0.00023783       0.00000731       0.00021107
Si       4.14255797      -4.59823226       5.79841492  T       0.00025820      -0.00009383       0.00007828
Si      -4.19353462      -0.94947998       5.79532369  T      -0.00053876       0.00053696      -0.00031956
Si      -4.17810438      -1.98608800       7.96763255  T      -0.00021505      -0.00025976       0.00008857
Si      -2.26935241      -3.36856656       3.60911830  T       0.00028627       0.00014458      -0.00035904
Si      -2.10704887      -4.50721453       5.75402885  T      -0.00007941      -0.00005996      -0.00059081
Si      -0.48082803      -0.67483293       5.81241783  T      -0.00010814      -0.00004161      -0.00014931
Si      -0.48721346      -1.84021456       7.97733775  T       0.00022893       0.00060999       0.00006067
Si       1.54927220      -2.99417034       3.62956148  T      -0.00044327       0.00013726      -0.00010016
Si       1.83172003      -4.06293613       5.78882218  T      -0.00039632       0.00036862       0.00010474
Si       3.43091029      -0.61503445       5.81870723  T      -0.00026053       0.00011268       0.00004509
Si       3.46119741      -1.78412072       7.98009728  T       0.00000922      -0.00012758       0.00025454
Si       5.15403135       2.03531114       3.63071345  T      -0.00020168       0.00003277      -0.00007867
Si       5.16068032       0.94947983       5.79532414  T       0.00053760      -0.00053766      -0.00032004
Si      -3.17541251       4.59823244       5.79841481  T      -0.00025782       0.00009425       0.00007762
Si      -3.88389115       3.67806237       7.94161877  T       0.00014673       0.00067545       0.00004720
Si      -2.52966987       1.71445920       3.64009507  T       0.00055323       0.00030733       0.00021503
Si      -2.46376499       0.61503454       5.81870681  T       0.00026079      -0.00011283       0.00004583
Si      -0.86457453       4.06293629       5.78882195  T       0.00039689      -0.00036847       0.00010567
Si      -0.54250698       3.06402309       7.97031443  T       0.00029595       0.00007757       0.00019081
Si       1.44345267       1.82023038       3.62704127  T      -0.00004436      -0.00047611      -0.00004108
Si       1.44797306       0.67483283       5.81241799  T       0.00010917       0.00004158      -0.00014943
Si       3.07419464       4.50721423       5.75402909  T       0.00007906       0.00006048      -0.00059116
Si       3.26130961       3.37056264       7.92401766  T       0.00040809      -0.00008813       0.00016134
Si       3.27915204       7.47439662       7.79220003  T       0.00059096      -0.00004552      -0.00028702
Si       4.39440503       6.53389674       9.73687343  T      -0.00010359       0.00007039      -0.00010085
Si      -3.42725950      -6.53389710       9.73687290  T       0.00010298      -0.00007065      -0.00010168
Si      -2.77160871      -6.74844179      12.08365247  T      -0.00029379       0.00057821      -0.00033270
Si      -1.06816892       7.51603175       7.90445536  T       0.00046584       0.00046962      -0.00023418
Si      -1.77177434       6.47595475      10.02348635  T      -0.00010001      -0.00012226       0.00005423
Si      -0.10826102      -5.68479118      10.09878988  T      -0.00016551      -0.00000168       0.00001203
Si      -0.27191525      -7.04512736      12.10246450  T      -0.00021303      -0.00001317      -0.00038428
Si       1.10486830       6.62275760       7.90310975  T       0.00008555      -0.00032005      -0.00037127
Si       1.07540598       5.68479110      10.09878991  T       0.00016569       0.00000133       0.00001216
Si       2.73891971      -6.47595478      10.02348660  T       0.00009966       0.00012283       0.00005396
Si       2.19114331      -7.08926300      12.28552880  T      -0.00038395      -0.00003682      -0.00017125
Si       4.85103664      -3.67806225       7.94161913  T      -0.00014756      -0.00067534       0.00004726
Si       4.18605473      -4.58763785      10.08203559  T      -0.00059375      -0.00011512       0.00007477
Si      -4.17458362      -0.86708001      10.11149852  T      -0.00010585       0.00028459       0.00004281
Si      -4.18967121      -1.95712955      12.23574949  T       0.00006779       0.00001161      -0.00027298
Si      -2.29416438      -3.37056293       7.92401736  T      -0.00040805       0.00008795       0.00016128
Si      -2.18563436      -4.58571743      10.03735649  T       0.00001848       0.00046713       0.00039129
Si      -0.48337733      -0.68211508      10.15751289  T      -0.00026546       0.00015998      -0.00055301
Si      -0.51881441      -1.99838896      12.24367002  T       0.00032771       0.00023691       0.00005289
Si       1.50965199      -3.06402297       7.97031466  T      -0.00029560      -0.00007798       0.00019006
Si       1.77269023      -4.23741720      10.08586114  T      -0.00006831      -0.00025751      -0.00020537
Si       3.39168375      -0.68706255      10.15769218  T       0.00007133      -0.00011003       0.00018145
Si       3.39254152      -1.96019636      12.26724277  T       0.00029300      -0.00018589      -0.00012361
Si       5.14524963       1.98608766       7.96763308  T       0.00021457       0.00026032       0.00008864
Si       5.14172849       0.86707967      10.11149900  T       0.00010583      -0.00028447       0.00004314
Si      -3.21890980       4.58763816      10.08203524  T       0.00059389       0.00011493       0.00007517
Si      -4.05483068       3.65264462      12.18750195  T       0.00026101      -0.00009429       0.00046580
Si      -2.49405229       1.78412064       7.98009673  T      -0.00000903       0.00012779       0.00025532
Si      -2.42453908       0.68706244      10.15769159  T      -0.00007124       0.00011052       0.00018234
Si      -0.80554533       4.23741714      10.08586109  T       0.00006827       0.00025742      -0.00020552
Si      -0.48000717       3.31008602      12.29751043  T       0.00021965      -0.00019934      -0.00001337
Si       1.45435840       1.84021454       7.97733806  T      -0.00022859      -0.00061018       0.00006006
Si       1.45052202       0.68211506      10.15751326  T       0.00026527      -0.00016003      -0.00055394
Si       3.15277933       4.58571732      10.03735667  T      -0.00001829      -0.00046697       0.00039150
Si       3.36548435       3.49862659      12.23218527  T      -0.00008055       0.00018642      -0.00003668
Si       3.73875369       6.74844193      12.08365302  T       0.00029375      -0.00057824      -0.00033343
Si       5.31929168       6.15486635      14.29438745  F      -0.71884850       0.30600109      -0.14895257
Si      -4.35214774      -6.15486635      14.29438745  F       0.71884866      -0.30600144      -0.14895214
Si      -4.35214774      -7.52261443      16.22867533  F       0.24149871       0.79980478       0.04495381
Si      -1.22399852       7.08926259      12.28552884  T       0.00038410       0.00003681      -0.00017134
Si      -2.41785985       6.15486635      14.29438745  F       0.34876664       0.10578479       0.05946002
Si      -0.48357197      -6.15486635      14.29438745  F       0.11716747       0.41621196       0.12080644
Si      -0.48357197      -7.52261443      16.22867533  F      -0.02435660       0.04875224       0.02980797
Si       1.23906029       7.04512733      12.10246445  T       0.00021285       0.00001354      -0.00038418
Si       1.45071591       6.15486635      14.29438745  F      -0.11716720      -0.41621225       0.12080665
Si       3.38500379      -6.15486635      14.29438745  F      -0.34876662      -0.10578457       0.05945991
Si       3.38500379      -7.52261443      16.22867533  F      -0.20910934       0.20372283       0.01939815
Si       5.02197525      -3.65264433      12.18750235  T      -0.00026060       0.00009411       0.00046508
Si       5.31929168      -4.78711827      14.29438745  F      -0.40305527       0.03533825      -0.46714884
Si      -4.35214774      -0.68387404      14.29438745  F       0.24371267      -0.21400996      -0.28248958
Si      -4.35214774      -2.05162212      16.22867533  F       0.12232287       0.17405358      -0.05935675
Si      -2.39833999      -3.49862682      12.23218508  T       0.00008071      -0.00018622      -0.00003651
Si      -2.41785985      -4.78711827      14.29438745  F      -0.13195731      -0.04927817      -0.18120766
Si      -0.48357197      -0.68387404      14.29438745  F       0.03890305      -0.01011930      -0.29988451
Si      -0.48357197      -2.05162212      16.22867533  F       0.06902799      -0.04541604      -0.06550672
Si       1.44715154      -3.31008596      12.29751038  T      -0.00022013       0.00019912      -0.00001312
Si       1.45071591      -4.78711827      14.29438745  F       0.00441569       0.09834697      -0.32895593
Si       3.38500379      -0.68387404      14.29438745  F       0.19063316       0.15798422      -0.03291298
Si       3.38500379      -2.05162212      16.22867533  F       0.10373420      -0.09915269      -0.08343818
Si       5.15681574       1.95712952      12.23574982  T      -0.00006790      -0.00001101      -0.00027386
Si       5.31929168       0.68387404      14.29438745  F      -0.24371233       0.21400924      -0.28248828
Si      -4.35214774       4.78711827      14.29438745  F       0.40305581      -0.03533868      -0.46714991
Si      -4.35214774       3.41937020      16.22867533  F       0.12443714       0.08517874      -0.05742247
Si      -2.42539713       1.96019634      12.26724240  T      -0.00029358       0.00018546      -0.00012267
Si      -2.41785985       0.68387404      14.29438745  F      -0.19063292      -0.15798346      -0.03291442
Si      -0.48357197       4.78711827      14.29438745  F      -0.00441548      -0.09834680      -0.32895595
Si      -0.48357197       3.41937020      16.22867533  F       0.07399271      -0.13788718       0.01038754
Si       1.48595867       1.99838898      12.24367026  T      -0.00032755      -0.00023711       0.00005232
Si       1.45071591       0.68387404      14.29438745  F      -0.03890285       0.01011903      -0.29988385
Si       3.38500379       4.78711827      14.29438745  F       0.13195752       0.04927793      -0.18120743
Si       3.38500379       3.41937020      16.22867533  F       0.14372059      -0.18066633       0.03931735
Si       5.31929168       7.52261443      16.22867533  F      -0.24149876      -0.79980418       0.04495389
Si       5.31929168       6.15486635      18.16296322  F      -0.40398332       0.72351802       0.21454480
Si      -4.35214774      -6.15486635      18.16296322  F       0.40398337      -0.72351814       0.21454485
Si      -4.35214774      -7.52261443      20.09725110  F       0.53942089       0.74269812      -1.09828064
Si      -2.41785985       7.52261443      16.22867533  F       0.20910943      -0.20372301       0.01939806
Si      -2.41785985       6.15486635      18.16296322  F      -0.02278898       0.23853479       0.17062814
Si      -0.48357197      -6.15486635      18.16296322  F       0.04679636      -0.26744785       0.06412611
Si      -0.48357197      -7.52261443      20.09725110  F       0.01761110       0.55077633      -0.75894413
Si       1.45071591       7.52261443      16.22867533  F       0.02435661      -0.04875222       0.02980792
Si       1.45071591       6.15486635      18.16296322  F      -0.04679639       0.26744783       0.06412610
Si       3.38500379      -6.15486635      18.16296322  F       0.02278898      -0.23853477       0.17062811
Si       3.38500379      -7.52261443      20.09725110  F      -0.39551727       0.57459982      -0.86246457
Si       5.31929168      -3.41937020      16.22867533  F      -0.12443709      -0.08517878      -0.05742246
Si       5.31929168      -4.78711827      18.16296322  F      -0.22505694       0.27847631       0.21330218
Si      -4.35214774      -0.68387404      18.16296322  F       0.17495224      -0.32959552       0.18240753
Si      -4.35214774      -2.05162212      20.09725110  F       0.81584518      -0.00833718      -0.80544344
Si      -2.41785985      -3.41937020      16.22867533  F      -0.14372052       0.18066637       0.03931733
Si      -2.41785985      -4.78711827      18.16296322  F      -0.11724318      -0.07761887       0.16337822
Si      -0.48357197      -0.68387404      18.16296322  F       0.10906222      -0.04375749       0.12552096
Si      -0.48357197      -2.05162212      20.09725110  F       0.08872504      -0.23119068      -0.13849671
Si       1.45071591      -3.41937020      16.22867533  F      -0.07399271       0.13788717       0.01038745
Si       1.45071591      -4.78711827      18.16296322  F      -0.12774145       0.00767319       0.22311088
Si       3.38500379      -0.68387404      18.16296322  F       0.07926229      -0.00332534       0.08456777
Si       3.38500379      -2.05162212      20.09725110  F       0.18293339      -0.32438246      -0.17898822
Si       5.31929168       2.05162212      16.22867533  F      -0.12232280      -0.17405352      -0.05935672
Si       5.31929168       0.68387404      18.16296322  F      -0.17495224       0.32959552       0.18240753
Si      -4.35214774       4.78711827      18.16296322  F       0.22505694      -0.27847630       0.21330217
Si      -4.35214774       3.41937020      20.09725110  F       0.77779400      -0.02627016      -0.78453351
Si      -2.41785985       2.05162212      16.22867533  F      -0.10373418       0.09915270      -0.08343823
Si      -2.41785985       0.68387404      18.16296322  F      -0.07926232       0.00332533       0.08456775
Si      -0.48357197       4.78711827      18.16296322  F       0.12774143      -0.00767320       0.22311089
Si      -0.48357197       3.41937020      20.09725110  F       0.08911468      -0.21658408      -0.10576984
Si       1.45071591       2.05162212      16.22867533  F      -0.06902797       0.04541603      -0.06550672
Si       1.45071591       0.68387404      18.16296322  F      -0.10906224       0.04375749       0.12552097
Si       3.38500379       4.78711827      18.16296322  F       0.11724317       0.07761886       0.16337826
Si       3.38500379       3.41937020      20.09725110  F       0.23037803      -0.29712788      -0.15305376
