360
Lattice="11.605727294873521 0.0 0.0 0.0 16.412976941613742 0.0 0.0 0.0 38.6857576495784" Properties=species:S:1:pos:R:3 pbc="F F F"
Si       5.31929168       7.52261443      18.42762783
Si       5.31929168       6.15486635     -17.46048389
Si      -4.35214774      -6.15486635     -17.46048389
Si      -4.35214774      -7.52261443     -15.52619601
Si      -2.41785985       7.52261443      18.42762783
Si      -2.41785985       6.15486635     -17.46048389
Si      -0.48357197      -6.15486635     -17.46048389
Si      -0.48357197      -7.52261443     -15.52619601
Si       1.45071591       7.52261443      18.42762783
Si       1.45071591       6.15486635     -17.46048389
Si       3.38500379      -6.15486635     -17.46048389
Si       3.38500379      -7.52261443     -15.52619601
Si       5.31929168      -3.41937020      18.42762783
Si       5.31929168      -4.78711827     -17.46048389
Si      -4.35214774      -0.68387404     -17.46048389
Si      -4.35214774      -2.05162212     -15.52619601
Si      -2.41785985      -3.41937020      18.42762783
Si      -2.41785985      -4.78711827     -17.46048389
Si      -0.48357197      -0.68387404     -17.46048389
Si      -0.48357197      -2.05162212     -15.52619601
Si       1.45071591      -3.41937020      18.42762783
Si       1.45071591      -4.78711827     -17.46048389
Si       3.38500379      -0.68387404     -17.46048389
Si       3.38500379      -2.05162212     -15.52619601
Si       5.31929168       2.05162212      18.42762783
Si       5.31929168       0.68387404     -17.46048389
Si      -4.35214774       4.78711827     -17.46048389
Si      -4.35214774       3.41937020     -15.52619601
Si      -2.41785985       2.05162212      18.42762783
Si      -2.41785985       0.68387404     -17.46048389
Si      -0.48357197       4.78711827     -17.46048389
Si      -0.48357197       3.41937020     -15.52619601
Si       1.45071591       2.05162212      18.42762783
Si       1.45071591       0.68387404     -17.46048389
Si       3.38500379       4.78711827     -17.46048389
Si       3.38500379       3.41937020     -15.52619601
Si       5.31929168       7.52261443     -15.52619601
Si       5.31929168       6.15486635     -13.59190813
Si      -4.35214774      -6.15486635     -13.59190813
Si      -4.35214774      -7.52261443     -11.65762024
Si      -2.41785985       7.52261443     -15.52619601
Si      -2.41785985       6.15486635     -13.59190813
Si      -0.48357197      -6.15486635     -13.59190813
Si      -0.48357197      -7.52261443     -11.65762024
Si       1.45071591       7.52261443     -15.52619601
Si       1.45071591       6.15486635     -13.59190813
Si       3.38500379      -6.15486635     -13.59190813
Si       3.38500379      -7.52261443     -11.65762024
Si       5.31929168      -3.41937020     -15.52619601
Si       5.31929168      -4.78711827     -13.59190813
Si      -4.35214774      -0.68387404     -13.59190813
Si      -4.35214774      -2.05162212     -11.65762024
Si      -2.41785985      -3.41937020     -15.52619601
Si      -2.41785985      -4.78711827     -13.59190813
Si      -0.48357197      -0.68387404     -13.59190813
Si      -0.48357197      -2.05162212     -11.65762024
Si       1.45071591      -3.41937020     -15.52619601
Si       1.45071591      -4.78711827     -13.59190813
Si       3.38500379      -0.68387404     -13.59190813
Si       3.38500379      -2.05162212     -11.65762024
Si       5.31929168       2.05162212     -15.52619601
Si       5.31929168       0.68387404     -13.59190813
Si      -4.35214774       4.78711827     -13.59190813
Si      -4.35214774       3.41937020     -11.65762024
Si      -2.41785985       2.05162212     -15.52619601
Si      -2.41785985       0.68387404     -13.59190813
Si      -0.48357197       4.78711827     -13.59190813
Si      -0.48357197       3.41937020     -11.65762024
Si       1.45071591       2.05162212     -15.52619601
Si       1.45071591       0.68387404     -13.59190813
Si       3.38500379       4.78711827     -13.59190813
Si       3.38500379       3.41937020     -11.65762024
Si       5.31929168       7.52261443     -11.65762024
Si       3.47459080       7.17261352     -10.36319110
Si      -2.50743713      -7.17268405     -10.36320860
Si      -1.92220520      -8.15466391      -8.19776374
Si      -2.41785985       7.52261443     -11.65762024
Si      -2.56403029       6.17129402      -9.78697417
Si      -0.00777498      -5.97872638      -9.96508713
Si       0.26019839      -7.21913014      -8.03151525
Si       1.45071591       7.52261443     -11.65762024
Si       0.97495500       5.97866409      -9.96509743
Si       3.53121961      -6.17133290      -9.78698388
Si       2.69671342      -7.49949815      -7.98353758
Si       5.31929168      -3.41937020     -11.65762024
Si       5.45383930      -4.80732315      -9.77316609
Si      -4.38695354      -0.74356993      -9.76638780
Si      -4.33170698      -2.23361601      -7.98338337
Si      -2.41785985      -3.41937020     -11.65762024
Si      -2.08833052      -4.89126176      -9.87710487
Si      -0.49013321      -0.65817128      -9.79310601
Si      -0.47958629      -2.07395034      -7.94110091
Si       1.45071591      -3.41937020     -11.65762024
Si       1.80798662      -4.62821888      -9.76824118
Si       3.45052046      -0.61459647      -9.81457443
Si       3.55716918      -1.96519163      -7.92157595
Si       5.31929168       2.05162212     -11.65762024
Si       5.35412225       0.74347703      -9.76644295
Si      -4.48662858       4.80724929      -9.77311079
Si      -4.39757910       3.48615790      -7.86236304
Si      -2.41785985       2.05162212     -11.65762024
Si      -2.48336363       0.61452078      -9.81459627
Si      -0.84081101       4.62815090      -9.76818796
Si      -0.61943803       3.21221441      -7.94500394
Si       1.45071591       2.05162212     -11.65762024
Si       1.45728625       0.65809153      -9.79313471
Si       3.05550188       4.89118830      -9.87705791
Si       3.33396545       3.54620816      -7.97611419
Si       2.88940431       8.15443252      -8.19765975
Si       3.96471362       7.22881329      -6.24575156
Si      -2.99748817      -7.22913976      -6.24579796
Si      -1.98786763      -8.22222050      -4.31990998
Si      -1.72950797       7.49928951      -7.98340493
Si      -2.29272158       6.25301016      -6.06200834
Si      -0.13883770      -5.92382409      -6.13982667
Si       0.15413158      -7.21852040      -4.24481850
Si       0.70699697       7.21890984      -8.03141829
Si       1.10603479       5.92350849      -6.13978929
Si       3.25991713      -6.25330611      -6.06208792
Si       2.54474098      -7.57897040      -4.22213883
Si       5.36476558      -3.48632101      -7.86236535
Si       5.25845658      -4.96590034      -6.05623335
Si      -4.39118444      -0.90969231      -6.08063082
Si      -4.35328006      -2.28318652      -4.21309811
Si      -2.36679769      -3.54640724      -7.97610145
Si      -2.26676776      -4.97703417      -6.12582501
Si      -0.50543038      -0.66411438      -6.07137541
Si      -0.50030820      -2.06411171      -4.20131044
Si       1.58660120      -3.21239477      -7.94500590
Si       1.68269183      -4.53749447      -6.05812559
Si       3.52086416      -0.55300252      -6.06360885
Si       3.57762969      -1.95885799      -4.19351011
Si       5.29887743       2.23341724      -7.98336337
Si       5.35836890       0.90938102      -6.08068194
Si      -4.29126802       4.96561751      -6.05614154
Si      -4.31334207       3.61051622      -4.16153233
Si      -2.59000373       1.96500375      -7.92153483
Si      -2.55369291       0.55270932      -6.06361661
Si      -0.71550384       4.53719553      -6.05805267
Si      -0.60941582       3.16998724      -4.19168204
Si       1.44674736       2.07376123      -7.94106992
Si       1.47260195       0.66381918      -6.07139805
Si       3.23396443       4.97672017      -6.12577322
Si       3.35277382       3.57571134      -4.23597708
Si       2.95510772       8.22181952      -4.31983101
Si       4.02484652       7.22544441      -2.42506277
Si      -3.05756219      -7.22593670      -2.42505505
Si      -2.06945319      -8.20369358      -0.48362959
Si      -1.57751697       7.57860237      -4.22202911
Si      -2.19756022       6.30451346      -2.32301796
Si      -0.19879249      -5.91957526      -2.35767978
Si       0.08424058      -7.22034245      -0.46440586
Si       0.81309475       7.21814111      -4.24474058
Si       1.16602490       5.91910874      -2.35766652
Si       3.16479034      -6.30496071      -2.32306768
Si       2.46690564      -7.60621779      -0.46192189
Si       5.28054312      -3.61089296      -4.16156235
Si       5.17344516      -5.03252644      -2.31371737
Si      -4.40327329      -0.90423041      -2.34520457
Si      -4.37900176      -2.25668079      -0.46272071
Si      -2.38556482      -3.57612594      -4.23596693
Si      -2.31694538      -4.97270993      -2.35869716
Si      -0.51870870      -0.65376670      -2.33165103
Si      -0.51838123      -2.05771381      -0.46152719
Si       1.57660958      -3.17038027      -4.19169613
Si       1.63434019      -4.54086136      -2.32651975
Si       3.53516374      -0.56588253      -2.32187797
Si       3.56453348      -1.98064532      -0.45636794
Si       5.32049903       2.28278528      -4.21309293
Si       5.37049297       0.90375548      -2.34525022
Si      -4.20622994       5.03209967      -2.31365741
Si      -4.27493667       3.65883029      -0.43342550
Si      -2.61043853       1.95847169      -4.19346613
Si      -2.56795970       0.56542589      -2.32186917
Si      -0.66711708       4.54041314      -2.32648084
Si      -0.58582858       3.17836564      -0.45438683
Si       1.46750088       2.06372098      -4.20128581
Si       1.48591383       0.65330802      -2.33166658
Si       3.28417717       4.97223805      -2.35868711
Si       3.38547320       3.55747559      -0.47905085
Si       3.03675060       8.20319380      -0.48364879
Si       4.09920447       7.18549000       1.39974750
Si      -3.13186464      -7.18602923       1.39983363
Si      -2.13939350      -8.16216170       3.33858458
Si      -1.49963741       7.60577266      -0.46190373
Si      -2.14474867       6.32595207       1.42473533
Si      -0.24567466      -5.90952135       1.41615069
Si       0.02992440      -7.21016364       3.31074796
Si       0.88303317       7.21988221      -0.46440173
Si       1.21294985       5.90901974       1.41611647
Si       3.11202271      -6.32642667       1.42475306
Si       2.41092221      -7.61448548       3.29434945
Si       5.24217371      -3.65930376      -0.43345015
Si       5.13041818      -5.06947749       1.42172451
Si      -4.41017479      -0.86976175       1.40042810
Si      -4.39694969      -2.21688726       3.28793040
Si      -2.41822293      -3.55799658      -0.47902134
Si      -2.35562803      -4.94575159       1.40963659
Si      -0.52343066      -0.64738704       1.40767698
Si      -0.53173242      -2.04949779       3.27985728
Si       1.55306180      -3.17886001      -0.45438878
Si       1.59963480      -4.54663118       1.41599834
Si       3.53122403      -0.58737999       1.41662603
Si       3.55129680      -2.00054523       3.28298268
Si       5.34626273       2.25617356      -0.46274873
Si       5.37743063       0.86925308       1.40039811
Si      -4.16316377       5.06903085       1.42172238
Si      -4.25136033       3.68841987       3.29572621
Si      -2.59730508       1.98016252      -0.45634674
Si      -2.56398415       0.58689008       1.41664326
Si      -0.63237178       4.54615263       1.41597913
Si      -0.56438729       3.18400518       3.28772599
Si       1.48561236       2.05722081      -0.46153129
Si       1.49067168       0.64689466       1.40766931
Si       3.32290032       4.94523934       1.40958659
Si       3.41183732       3.52905850       3.28351362
Si       3.10673430       8.16168505       3.33844653
Si       4.15767238       7.13616760       5.23028039
Si      -3.19031256      -7.13661384       5.23043357
Si      -2.23030702      -8.06237787       7.20875079
Si      -1.44360912       7.61407602       3.29425889
Si      -2.11254135       6.33419954       5.17257455
Si      -0.28601883      -5.89468096       5.19107526
Si      -0.00940675      -7.20286824       7.08253575
Si       0.93739164       7.20972997       3.31066455
Si       1.25331946       5.89427482       5.19100512
Si       3.07984434      -6.33456393       5.17265221
Si       2.39348727      -7.59702809       7.06197506
Si       5.21863113      -3.68884774       3.29572158
Si       5.10297310      -5.08384663       5.16035791
Si      -4.41352011      -0.83211002       5.15241971
Si      -4.39071343      -2.16890072       7.04818344
Si      -2.44455558      -3.52954694       3.28355967
Si      -2.38766544      -4.90913396       5.18169233
Si      -0.52465157      -0.63708404       5.14350974
Si      -0.52602833      -2.02926655       7.01960461
Si       1.53165118      -3.18446009       3.28774077
Si       1.57414983      -4.55070689       5.16114258
Si       3.52332324      -0.60828607       5.15784587
Si       3.53261157      -2.01355965       7.02875903
Si       5.36424046       2.21641119       3.28787808
Si       5.38079190       0.83170453       5.15241549
Si      -4.13568705       5.08350695       5.16029557
Si      -4.26265115       3.66844072       7.00811198
Si      -2.58403910       2.00010330       3.28297012
Si      -2.55606809       0.60790263       5.15786416
Si      -0.60686721       4.55032948       5.16107437
Si      -0.54514096       3.19622009       7.03821892
Si       1.49899288       2.04904114       3.27982285
Si       1.49190766       0.63669877       5.14351278
Si       3.35496014       4.90871292       5.18159696
Si       3.40313634       3.47881314       7.04238471
Si       3.19765986       8.06203270       7.20853400
Si       4.41055242       6.90056692       8.93150028
Si      -3.44318730      -6.90082697       8.93168663
Si      -2.76642059      -7.33323294      11.17625119
Si      -1.42615670       7.59674821       7.06182896
Si      -2.18036147       6.27065984       8.87917800
Si      -0.28431049      -5.94700205       9.00381945
Si       0.04297302      -7.44938313      10.76610979
Si       0.97673714       7.20256124       7.08240132
Si       1.25160237       5.94678863       9.00374495
Si       3.14764287      -6.27083349       8.87926597
Si       2.48613660      -7.40074836      10.82057324
Si       5.22992261      -3.66870352       7.00812583
Si       5.17013355      -5.02605094       8.89919390
Si      -4.40314565      -0.76803046       8.90241247
Si      -4.41309678      -2.11124047      10.79494675
Si      -2.43585610      -3.47914043       7.04242523
Si      -2.35033006      -4.85054555       8.94498724
Si      -0.50993530      -0.64066087       8.89272500
Si      -0.49917941      -2.04692467      10.75397873
Si       1.51240264      -3.19650740       7.03823635
Si       1.55817940      -4.58143767       8.90105458
Si       3.48278645      -0.63085347       8.91189449
Si       3.46239516      -2.06150850      10.76016865
Si       5.35799506       2.16857763       7.04812795
Si       5.37037861       0.76783467       8.90244492
Si      -4.20286178       5.02589251       8.89911145
Si      -4.33980295       3.51823938      10.68524998
Si      -2.56535664       2.01328095       7.02871889
Si      -2.51556481       0.63067593       8.91190758
Si      -0.59091514       4.58125433       8.90098124
Si      -0.50747342       3.30134038      10.81929723
Si       1.49328480       2.02897320       7.01955456
Si       1.47716050       0.64048673       8.89273969
Si       3.31761191       4.85032730       8.94488257
Si       3.41477526       3.38778385      10.77267002
Si       3.73368365       7.33313316      11.17599514
Si       5.31929168       6.15486635      12.62476418
Si      -4.35214774      -6.15486635      12.62476418
Si      -4.35214774      -7.52261443      14.55905207
Si      -1.51882055       7.40055419      10.82048857
Si      -2.41785985       6.15486635      12.62476418
Si      -0.48357197      -6.15486635      12.62476418
Si      -0.48357197      -7.52261443      14.55905207
Si       0.92438342       7.44925796      10.76598288
Si       1.45071591       6.15486635      12.62476418
Si       3.38500379      -6.15486635      12.62476418
Si       3.38500379      -7.52261443      14.55905207
Si       5.30702044      -3.51828000      10.68524289
Si       5.31929168      -4.78711827      12.62476418
Si      -4.35214774      -0.68387404      12.62476418
Si      -4.35214774      -2.05162212      14.55905207
Si      -2.44757710      -3.38784680      10.77265841
Si      -2.41785985      -4.78711827      12.62476418
Si      -0.48357197      -0.68387404      12.62476418
Si      -0.48357197      -2.05162212      14.55905207
Si       1.47467366      -3.30140362      10.81929155
Si       1.45071591      -4.78711827      12.62476418
Si       3.38500379      -0.68387404      12.62476418
Si       3.38500379      -2.05162212      14.55905207
Si       5.38028441       2.11115850      10.79490520
Si       5.31929168       0.68387404      12.62476418
Si      -4.35214774       4.78711827      12.62476418
Si      -4.35214774       3.41937020      14.55905207
Si      -2.49519898       2.06143642      10.76012928
Si      -2.41785985       0.68387404      12.62476418
Si      -0.48357197       4.78711827      12.62476418
Si      -0.48357197       3.41937020      14.55905207
Si       1.46637735       2.04685327      10.75394351
Si       1.45071591       0.68387404      12.62476418
Si       3.38500379       4.78711827      12.62476418
Si       3.38500379       3.41937020      14.55905207
Si       5.31929168       7.52261443      14.55905207
Si       5.31929168       6.15486635      16.49333995
Si      -4.35214774      -6.15486635      16.49333995
Si      -4.35214774      -7.52261443      18.42762783
Si      -2.41785985       7.52261443      14.55905207
Si      -2.41785985       6.15486635      16.49333995
Si      -0.48357197      -6.15486635      16.49333995
Si      -0.48357197      -7.52261443      18.42762783
Si       1.45071591       7.52261443      14.55905207
Si       1.45071591       6.15486635      16.49333995
Si       3.38500379      -6.15486635      16.49333995
Si       3.38500379      -7.52261443      18.42762783
Si       5.31929168      -3.41937020      14.55905207
Si       5.31929168      -4.78711827      16.49333995
Si      -4.35214774      -0.68387404      16.49333995
Si      -4.35214774      -2.05162212      18.42762783
Si      -2.41785985      -3.41937020      14.55905207
Si      -2.41785985      -4.78711827      16.49333995
Si      -0.48357197      -0.68387404      16.49333995
Si      -0.48357197      -2.05162212      18.42762783
Si       1.45071591      -3.41937020      14.55905207
Si       1.45071591      -4.78711827      16.49333995
Si       3.38500379      -0.68387404      16.49333995
Si       3.38500379      -2.05162212      18.42762783
Si       5.31929168       2.05162212      14.55905207
Si       5.31929168       0.68387404      16.49333995
Si      -4.35214774       4.78711827      16.49333995
Si      -4.35214774       3.41937020      18.42762783
Si      -2.41785985       2.05162212      14.55905207
Si      -2.41785985       0.68387404      16.49333995
Si      -0.48357197       4.78711827      16.49333995
Si      -0.48357197       3.41937020      18.42762783
Si       1.45071591       2.05162212      14.55905207
Si       1.45071591       0.68387404      16.49333995
Si       3.38500379       4.78711827      16.49333995
Si       3.38500379       3.41937020      18.42762783
