216
Lattice="11.605727294873521 0.0 0.0 0.0 13.401139555673227 0.0 0.0 0.0 28.428109966331448" Properties=species:S:1:pos:R:3:forces:R:3:energies:R:1 energy=-1164.719054612494 stress="0.002067008700972795 8.301752554514077e-18 -1.0212175863678278e-17 8.301752554514077e-18 0.0020606258629626874 -8.740256137012417e-06 -1.0212175863678278e-17 -8.740256137012417e-06 0.0020952646763726193" free_energy=-1164.719054612494 pbc="T T T"
Si       0.00000000       0.00090168      20.92949385       0.00000000       0.00007153      -0.00000589      -5.38385183
Si       0.00000000      13.40037059      23.29950698       0.00000000       0.00003680      -0.00005836      -5.38720452
Si       0.00000000       2.23361895      24.09042263      -0.00000000       0.00001829      -0.00003446      -5.38914912
Si       0.00000000       2.22508666      26.46242305      -0.00000000       0.00000874       0.00000333      -5.38199950
Si       0.00000000       4.46379732      27.24498896       0.00000000       0.00008470       0.00000908      -5.39060746
Si       0.00000000       4.46886185       1.18660981      -0.00000000       0.00002281       0.00000348      -5.38986181
Si       1.93483953       1.11196978      27.24925423       0.00001549      -0.00004516      -0.00002115      -5.38636491
Si       1.93465549       1.10969434       1.18355737      -0.00005080       0.00007210       0.00001661      -5.38338487
Si       1.94109361       3.35590247      20.93395085      -0.00004633       0.00004954      -0.00000518      -5.38092848
Si       1.93918847       3.35368365      23.30210638      -0.00001689      -0.00000970       0.00010401      -5.38427396
Si       1.94111230       5.58111439      24.09052114      -0.00003423       0.00005058       0.00006445      -5.38539341
Si       1.93851733       5.58197606      26.45341130       0.00002308      -0.00004973       0.00002076      -5.38757759
Si       3.86973437      13.40051889      20.92954033      -0.00003005      -0.00012148      -0.00004058      -5.38612903
Si       3.86858921       0.00356925      23.30082913      -0.00009016      -0.00002727       0.00000392      -5.39034128
Si       3.86970905       2.24299296      24.09093750      -0.00000554      -0.00008837       0.00006177      -5.38389070
Si       3.86876023       2.23957180      26.45333663       0.00000548       0.00003672      -0.00001278      -5.38661600
Si       3.86976939       4.46875390      27.23673578       0.00001306      -0.00004478       0.00008702      -5.38678294
Si       3.87216198       4.47126184       1.18551852      -0.00000981       0.00007275       0.00002799      -5.39099439
Si       5.80286365       1.12551426      27.24139528      -0.00000000      -0.00002797       0.00005066      -5.38335695
Si       5.80286365       1.12154539       1.18473274      -0.00000000       0.00003194       0.00007786      -5.39434338
Si       5.80286365       3.36015625      20.93322929      -0.00000000      -0.00013095       0.00012024      -5.38547188
Si       5.80286365       3.34501612      23.29593748      -0.00000000      -0.00000862       0.00007218      -5.36030767
P        5.80286365       5.58501236      24.08930603       0.00000000      -0.00009661       0.00002770      -5.81752551
Si       5.80286365       5.58530516      26.46233487      -0.00000000       0.00000660       0.00004604      -5.36335931
Si       7.73599292      13.40051889      20.92954033       0.00003005      -0.00012148      -0.00004058      -5.38612903
Si       7.73713809       0.00356925      23.30082913       0.00009016      -0.00002727       0.00000392      -5.39034128
Si       7.73601825       2.24299296      24.09093750       0.00000554      -0.00008837       0.00006177      -5.38389070
Si       7.73696707       2.23957180      26.45333663      -0.00000548       0.00003672      -0.00001278      -5.38661600
Si       7.73595790       4.46875390      27.23673578      -0.00001306      -0.00004478       0.00008702      -5.38678294
Si       7.73356531       4.47126184       1.18551852       0.00000981       0.00007275       0.00002799      -5.39099439
Si       9.67088776       1.11196978      27.24925423      -0.00001549      -0.00004516      -0.00002115      -5.38636491
Si       9.67107181       1.10969434       1.18355737       0.00005080       0.00007210       0.00001661      -5.38338487
Si       9.66463369       3.35590247      20.93395085       0.00004633       0.00004954      -0.00000518      -5.38092848
Si       9.66653882       3.35368365      23.30210638       0.00001689      -0.00000970       0.00010401      -5.38427396
Si       9.66461500       5.58111439      24.09052114       0.00003423       0.00005058       0.00006445      -5.38539341
Si       9.66720996       5.58197606      26.45341130      -0.00002308      -0.00004973       0.00002076      -5.38757759
Si       0.00000000       6.70158387      20.92876276       0.00000000       0.00006797       0.00000300      -5.38853636
Si       0.00000000       6.69887773      23.30086050       0.00000000      -0.00002060       0.00007708      -5.39432400
Si       0.00000000       8.93448096      24.09293564       0.00000000       0.00001307       0.00000117      -5.39316360
Si       0.00000000       8.93190689      26.46597403      -0.00000000      -0.00000852      -0.00005051      -5.38197663
Si       0.00000000      11.16556823      27.23925053       0.00000000      -0.00002579      -0.00003040      -5.36308651
P       11.60572729      11.16535268       1.18486540       0.00000000      -0.00001173       0.00000800      -5.81726178
Si       1.93525554       7.81692429      27.24529186      -0.00004265      -0.00005648       0.00006386      -5.38150936
Si       1.93140640       7.81903026       1.18187435       0.00003457      -0.00004236      -0.00007213      -5.38684692
Si       1.93435215      10.04925472      20.92924581      -0.00002465      -0.00000661       0.00003613      -5.38649552
Si       1.93775279      10.04726108      23.29995349      -0.00006061      -0.00004674      -0.00003104      -5.39024974
Si       1.93504841      12.28242078      24.09239120      -0.00004513      -0.00006341      -0.00003474      -5.39139730
Si       1.93399816      12.28304490      26.46722507      -0.00002849      -0.00000247      -0.00000767      -5.38391906
Si       3.87636969       6.69601316      20.93369129      -0.00001709      -0.00006242       0.00004424      -5.38561301
Si       3.86250210       6.70425011      23.29654382       0.00005384      -0.00008864      -0.00001062      -5.36082100
Si       3.87505863       8.92877642      24.09384558      -0.00005644      -0.00004749       0.00004045      -5.38345863
Si       3.86776761       8.93308529      26.45870675       0.00006284      -0.00007868      -0.00007535      -5.38022326
Si       3.86501106      11.16822658      27.24957725      -0.00003161      -0.00002083      -0.00006296      -5.38760795
Si       3.86289774      11.16823819       1.18417824       0.00004181      -0.00001462       0.00000709      -5.38444445
Si       5.80286365       7.81753586      27.23843043       0.00000000      -0.00013795       0.00004797      -5.38482202
Si       5.80286365       7.81098931       1.18529530       0.00000000      -0.00006854      -0.00006766      -5.39296956
Si       5.80286365      10.04083640      20.93489430      -0.00000000      -0.00002551      -0.00004019      -5.38121471
Si       5.80286365      10.04370163      23.30311239      -0.00000000      -0.00007399      -0.00001630      -5.38343044
Si       5.80286365      12.28267051      24.08938397       0.00000000      -0.00013806       0.00003701      -5.39045772
Si       5.80286365      12.28767159      26.45894556       0.00000000      -0.00005591       0.00001699      -5.39005250
Si       7.72935760       6.69601316      20.93369129       0.00001709      -0.00006242       0.00004424      -5.38561301
Si       7.74322520       6.70425011      23.29654382      -0.00005384      -0.00008864      -0.00001062      -5.36082100
Si       7.73066866       8.92877642      24.09384558       0.00005644      -0.00004749       0.00004045      -5.38345863
Si       7.73795968       8.93308529      26.45870675      -0.00006284      -0.00007868      -0.00007535      -5.38022326
Si       7.74071623      11.16822658      27.24957725       0.00003161      -0.00002083      -0.00006296      -5.38760795
Si       7.74282956      11.16823819       1.18417824      -0.00004181      -0.00001462       0.00000709      -5.38444445
Si       9.67047175       7.81692429      27.24529186       0.00004265      -0.00005648       0.00006386      -5.38150936
Si       9.67432089       7.81903026       1.18187435      -0.00003457      -0.00004236      -0.00007213      -5.38684692
Si       9.67137514      10.04925472      20.92924581       0.00002465      -0.00000661       0.00003613      -5.38649552
Si       9.66797451      10.04726108      23.29995349       0.00006061      -0.00004674      -0.00003104      -5.39024974
Si       9.67067888      12.28242078      24.09239120       0.00004513      -0.00006341      -0.00003474      -5.39139730
Si       9.67172914      12.28304490      26.46722507       0.00002849      -0.00000247      -0.00000767      -5.38391906
Si       0.00000000       0.00665886       1.97522633       0.00000000       0.00003742       0.00002164      -5.36048724
Si       0.00000000      13.39254212       4.33743539      -0.00000000       0.00015468      -0.00004682      -5.38434474
Si       0.00000000       2.23121133       5.12734754      -0.00000000       0.00002292      -0.00007643      -5.39405905
Si       0.00000000       2.23372086       7.49775783       0.00000000      -0.00007416       0.00000181      -5.38784338
Si       0.00000000       4.46783234       8.28738242       0.00000000       0.00009728      -0.00003991      -5.38943713
Si       0.00000000       4.46724666      10.65949208       0.00000000      -0.00000753       0.00005485      -5.38463099
Si       1.93574135       1.11807135       8.28811997       0.00000245       0.00002401      -0.00003324      -5.38714171
Si       1.93588890       1.11941785      10.65905359      -0.00009320       0.00001092      -0.00000714      -5.38434064
Si       1.94014762       3.35092919       1.97610386       0.00005852       0.00006029      -0.00002314      -5.38611605
Si       1.93902182       3.35523655       4.34371198      -0.00003241       0.00005980       0.00006520      -5.38692219
Si       1.94058312       5.58349335       5.13005922      -0.00001695       0.00002162      -0.00009573      -5.38350234
Si       1.93969189       5.58189343       7.49361255       0.00003697      -0.00002016      -0.00000732      -5.38548668
Si       3.86472154      13.39718683       1.96911749       0.00004581      -0.00002846      -0.00004957      -5.38670574
Si       3.86444397       0.00083377       4.33691684      -0.00005878       0.00008059       0.00004400      -5.38510546
Si       3.86866856       2.24150938       5.13056874       0.00003810      -0.00001930       0.00002140      -5.38224325
Si       3.86987671       2.24027669       7.49378660      -0.00007895       0.00008592      -0.00004294      -5.38499668
Si       3.87009967       4.46869951       8.27988897       0.00002934      -0.00003016      -0.00000709      -5.38487159
Si       3.87347599       4.47043396      10.65739002      -0.00007004       0.00009811       0.00003669      -5.38814664
Si       5.80286365       1.12452014       8.28459571       0.00000000       0.00004595       0.00001068      -5.38091552
Si       5.80286365       1.12344530      10.65828525       0.00000000       0.00004138       0.00011203      -5.38843335
Si       5.80286365       3.36009536       1.97620940      -0.00000000      -0.00010689       0.00012058      -5.38623378
Si       5.80286365       3.34452402       4.33786335      -0.00000000       0.00002730      -0.00003343      -5.36159343
P        5.80286365       5.58478803       5.12972796       0.00000000      -0.00001903      -0.00004719      -5.81774515
Si       5.80286365       5.58420138       7.50394011      -0.00000000       0.00010404      -0.00000351      -5.36288578
Si       7.74100576      13.39718683       1.96911749      -0.00004581      -0.00002846      -0.00004957      -5.38670574
Si       7.74128332       0.00083377       4.33691684       0.00005878       0.00008059       0.00004400      -5.38510546
Si       7.73705873       2.24150938       5.13056874      -0.00003810      -0.00001930       0.00002140      -5.38224325
Si       7.73585058       2.24027669       7.49378660       0.00007895       0.00008592      -0.00004294      -5.38499668
Si       7.73562762       4.46869951       8.27988897      -0.00002934      -0.00003016      -0.00000709      -5.38487159
Si       7.73225130       4.47043396      10.65739002       0.00007004       0.00009811       0.00003669      -5.38814664
Si       9.66998594       1.11807135       8.28811997      -0.00000245       0.00002401      -0.00003324      -5.38714171
Si       9.66983839       1.11941785      10.65905359       0.00009320       0.00001092      -0.00000714      -5.38434064
Si       9.66557967       3.35092919       1.97610386      -0.00005852       0.00006029      -0.00002314      -5.38611605
Si       9.66670548       3.35523655       4.34371198       0.00003241       0.00005980       0.00006520      -5.38692219
Si       9.66514417       5.58349335       5.13005922       0.00001695       0.00002162      -0.00009573      -5.38350234
Si       9.66603541       5.58189343       7.49361255      -0.00003697      -0.00002016      -0.00000732      -5.38548668
Si       0.00000000       6.70759112       1.96897254      -0.00000000       0.00002808      -0.00004587      -5.38877740
Si       0.00000000       6.70485950       4.33752680      -0.00000000      -0.00002729       0.00009560      -5.38944773
Si       0.00000000       8.93935003       5.12406151      -0.00000000       0.00005455      -0.00006199      -5.38866084
Si       0.00000000       8.93152290       7.49634669      -0.00000000       0.00000741       0.00005436      -5.38597506
Si       0.00000000      11.16634802       8.28889734       0.00000000       0.00004973      -0.00003198      -5.38510408
Si       0.00000000      11.16696397      10.65855027       0.00000000       0.00002759      -0.00000975      -5.38366911
Si       1.93956787       7.81387258       8.28433236      -0.00004945       0.00007063       0.00003125      -5.38170214
Si       1.93885101       7.81360720      10.65776272      -0.00002110      -0.00000553       0.00000337      -5.38811203
Si       1.93998112      10.04610496       1.97468642      -0.00008526       0.00001072      -0.00005116      -5.36148820
Si       1.93063713      10.05185067       4.33774619      -0.00004400       0.00004006       0.00001809      -5.38705486
Si       1.93145509      12.28077843       5.12342649      -0.00001796      -0.00005408      -0.00006175      -5.38617206
Si       1.93447991      12.28425851       7.49743573      -0.00008512       0.00008026       0.00003360      -5.38796038
Si       3.87262254       6.69895898       1.97555611       0.00006112      -0.00012892       0.00000691      -5.38916768
Si       3.86387022       6.70375809       4.33804892       0.00006171      -0.00005323      -0.00001912      -5.36103143
Si       3.87264246       8.93067334       5.12998739      -0.00002981       0.00001365      -0.00002639      -5.38709920
Si       3.87367448       8.92961427       7.49296634       0.00000783       0.00003553      -0.00004073      -5.38574391
Si       3.86976775      11.16645748       8.28761080      -0.00005810       0.00004768      -0.00002355      -5.38760470
Si       3.87031082      11.16587251      10.65874601      -0.00002006       0.00005957       0.00004654      -5.38402694
Si       5.80286365       7.81542570       8.27966065      -0.00000000      -0.00006027      -0.00001585      -5.38518260
Si       5.80286365       7.81087639      10.65736695       0.00000000       0.00003992      -0.00004969      -5.38801632
Si       5.80286365      10.04488370       1.97539638      -0.00000000      -0.00008747      -0.00006127      -5.39091616
Si       5.80286365      10.04339198       4.34342787       0.00000000      -0.00003205      -0.00002969      -5.38859135
Si       5.80286365      12.28235572       5.12673831       0.00000000      -0.00002512      -0.00004908      -5.38817156
Si       5.80286365      12.28798832       7.49730813      -0.00000000       0.00006762       0.00002171      -5.38495184
Si       7.73310475       6.69895898       1.97555611      -0.00006112      -0.00012892       0.00000691      -5.38916768
Si       7.74185707       6.70375809       4.33804892      -0.00006171      -0.00005323      -0.00001912      -5.36103143
Si       7.73308483       8.93067334       5.12998739       0.00002981       0.00001365      -0.00002639      -5.38709920
Si       7.73205281       8.92961427       7.49296634      -0.00000783       0.00003553      -0.00004073      -5.38574391
Si       7.73595955      11.16645748       8.28761080       0.00005810       0.00004768      -0.00002355      -5.38760470
Si       7.73541648      11.16587251      10.65874601       0.00002006       0.00005957       0.00004654      -5.38402694
Si       9.66615942       7.81387258       8.28433236       0.00004945       0.00007063       0.00003125      -5.38170214
Si       9.66687628       7.81360720      10.65776272       0.00002110      -0.00000553       0.00000337      -5.38811203
Si       9.66574617      10.04610496       1.97468642       0.00008526       0.00001072      -0.00005116      -5.36148820
Si       9.67509017      10.05185067       4.33774619       0.00004400       0.00004006       0.00001809      -5.38705486
Si       9.67427221      12.28077843       5.12342649       0.00001796      -0.00005408      -0.00006175      -5.38617206
Si       9.67124739      12.28425851       7.49743573       0.00008512       0.00008026       0.00003360      -5.38796038
Si       0.00000000       0.00132245      11.44863003      -0.00000000       0.00014849      -0.00003750      -5.38391441
Si       0.00000000       0.00052860      13.81951944       0.00000000       0.00006949       0.00000430      -5.38506654
Si       0.00000000       2.23600540      14.60906171      -0.00000000       0.00003712      -0.00010068      -5.38899020
Si       0.00000000       2.23364650      16.97968813      -0.00000000      -0.00005669      -0.00004393      -5.38623541
Si       0.00000000       4.46790759      17.76864133       0.00000000       0.00007533      -0.00003293      -5.38950851
Si      11.60572729       4.46760186      20.14063716      -0.00000000      -0.00004938      -0.00000231      -5.38458059
Si       1.93617684       1.11867937      17.76907013      -0.00005429      -0.00001516      -0.00009646      -5.38649662
Si       1.93582678       1.11935821      20.14025088      -0.00010832      -0.00004238      -0.00003114      -5.38442804
Si       1.94137812       3.35593840      11.45299459      -0.00002213       0.00006640      -0.00000872      -5.38079499
Si       1.93986498       3.35432337      13.82129739      -0.00008091       0.00001860       0.00009935      -5.38440434
Si       1.94173456       5.58132776      14.61058938      -0.00005741       0.00004984       0.00000424      -5.38442590
Si       1.94000076       5.58116205      16.97438607       0.00000033      -0.00005702       0.00000551      -5.38496257
Si       3.86994234      13.40088643      11.44808814      -0.00002361      -0.00000810      -0.00007405      -5.38604698
Si       3.87017220       0.00513249      13.81979786      -0.00010980       0.00005659       0.00006080      -5.38922694
Si       3.87006489       2.24366733      14.61123032      -0.00007274      -0.00001746       0.00000391      -5.38277740
Si       3.87032855       2.24092175      16.97469776      -0.00008365       0.00005780      -0.00002359      -5.38459876
Si       3.87026947       4.46881992      17.76128699      -0.00006400      -0.00002391       0.00000091      -5.38528588
Si       3.87344128       4.47043086      20.13873449      -0.00004360       0.00007963       0.00001416      -5.38798416
Si       5.80286365       1.12486178      17.76612343      -0.00000000      -0.00004598      -0.00000781      -5.38071272
Si       5.80286365       1.12311666      20.13981870       0.00000000      -0.00003025       0.00002694      -5.38837015
Si       5.80286365       3.36032755      11.45231256       0.00000000      -0.00005195       0.00009205      -5.38511296
Si       5.80286365       3.34523173      13.81520286      -0.00000000       0.00003095       0.00003992      -5.36148217
P        5.80286365       5.58377489      14.60908284      -0.00000000       0.00002099      -0.00000344      -5.81737654
Si       5.80286365       5.58389503      16.98479731      -0.00000000       0.00005631       0.00002685      -5.36181813
Si       7.73578495      13.40088643      11.44808814       0.00002361      -0.00000810      -0.00007405      -5.38604698
Si       7.73555509       0.00513249      13.81979786       0.00010980       0.00005659       0.00006080      -5.38922694
Si       7.73566240       2.24366733      14.61123032       0.00007274      -0.00001746       0.00000391      -5.38277740
Si       7.73539875       2.24092175      16.97469776       0.00008365       0.00005780      -0.00002359      -5.38459876
Si       7.73545783       4.46881992      17.76128699       0.00006400      -0.00002391       0.00000091      -5.38528588
Si       7.73228601       4.47043086      20.13873449       0.00004360       0.00007963       0.00001416      -5.38798416
Si       9.66955046       1.11867937      17.76907013       0.00005429      -0.00001516      -0.00009646      -5.38649662
Si       9.66990051       1.11935821      20.14025088       0.00010832      -0.00004238      -0.00003114      -5.38442804
Si       9.66434917       3.35593840      11.45299459       0.00002213       0.00006640      -0.00000872      -5.38079499
Si       9.66586232       3.35432337      13.82129739       0.00008091       0.00001860       0.00009935      -5.38440434
Si       9.66399274       5.58132776      14.61058938       0.00005741       0.00004984       0.00000424      -5.38442590
Si       9.66572654       5.58116205      16.97438607      -0.00000033      -0.00005702       0.00000551      -5.38496257
Si       0.00000000       6.70119345      11.44746410      -0.00000000       0.00008348      -0.00002285      -5.38853177
Si       0.00000000       6.69689060      13.82007202      -0.00000000      -0.00000440       0.00012196      -5.39291414
Si       0.00000000       8.93334607      14.60799991      -0.00000000       0.00005997      -0.00000509      -5.38840044
Si       0.00000000       8.93015548      16.97791668      -0.00000000      -0.00008874       0.00001158      -5.38296164
Si       0.00000000      11.16607548      17.76841777       0.00000000       0.00004248      -0.00008549      -5.38412113
Si       0.00000000      11.16673500      20.13896430      -0.00000000      -0.00001126      -0.00001528      -5.38392010
Si       1.93994592       7.81293585      17.76525558      -0.00007648      -0.00000328       0.00002244      -5.38116026
Si       1.93904534       7.81354438      20.13894501      -0.00000203      -0.00007889      -0.00003176      -5.38816178
Si       1.93450792      10.04932405      11.44814227      -0.00003156       0.00005423      -0.00000492      -5.38661606
Si       1.93833957      10.04706709      13.81967658      -0.00007909      -0.00002750       0.00004812      -5.38812981
Si       1.93603027      12.28339448      14.60755028      -0.00009882       0.00002517      -0.00005022      -5.38638232
Si       1.93538087      12.28458372      16.97920987      -0.00008190       0.00000922      -0.00000395      -5.38493951
Si       3.87636421       6.69595225      11.45220059      -0.00000240      -0.00002006       0.00002644      -5.38552142
Si       3.86314816       6.70312799      13.81517685      -0.00001155      -0.00002336       0.00004025      -5.36053695
Si       3.87634680       8.92749887      14.61160491      -0.00006818       0.00003485      -0.00000135      -5.38357255
Si       3.87363925       8.92906357      16.97494891      -0.00001351      -0.00001034      -0.00002463      -5.38400029
Si       3.87029066      11.16585223      17.76893837      -0.00008252       0.00001767      -0.00005007      -5.38700990
Si       3.87039171      11.16548685      20.14029799      -0.00002662      -0.00001802       0.00000906      -5.38414424
Si       5.80286365       7.81464168      17.76149164       0.00000000      -0.00007109      -0.00004645      -5.38558065
Si       5.80286365       7.81065306      20.13898247       0.00000000      -0.00006929      -0.00007228      -5.38801864
Si       5.80286365      10.04122461      11.45304717       0.00000000       0.00006428      -0.00004798      -5.38136309
Si       5.80286365      10.04383010      13.82122122       0.00000000       0.00002463       0.00007482      -5.38324426
Si       5.80286365      12.28259848      14.60868349       0.00000000      -0.00005537      -0.00001209      -5.38872188
Si       5.80286365      12.28805587      16.97903072      -0.00000000       0.00002622       0.00003565      -5.38447231
Si       7.72936309       6.69595225      11.45220059       0.00000240      -0.00002006       0.00002644      -5.38552142
Si       7.74257914       6.70312799      13.81517685       0.00001155      -0.00002336       0.00004025      -5.36053695
Si       7.72938050       8.92749887      14.61160491       0.00006818       0.00003485      -0.00000135      -5.38357255
Si       7.73208805       8.92906357      16.97494891       0.00001351      -0.00001034      -0.00002463      -5.38400029
Si       7.73543664      11.16585223      17.76893837       0.00008252       0.00001767      -0.00005007      -5.38700990
Si       7.73533559      11.16548685      20.14029799       0.00002662      -0.00001802       0.00000906      -5.38414424
Si       9.66578138       7.81293585      17.76525558       0.00007648      -0.00000328       0.00002244      -5.38116026
Si       9.66668196       7.81354438      20.13894501       0.00000203      -0.00007889      -0.00003176      -5.38816178
Si       9.67121938      10.04932405      11.44814227       0.00003156       0.00005423      -0.00000492      -5.38661606
Si       9.66738772      10.04706709      13.81967658       0.00007909      -0.00002750       0.00004812      -5.38812981
Si       9.66969702      12.28339448      14.60755028       0.00009882       0.00002517      -0.00005022      -5.38638232
Si       9.67034642      12.28458372      16.97920987       0.00008190       0.00000922      -0.00000395      -5.38493951
