216
Lattice="11.605727294873521 0.0 0.0 0.0 13.401139555673227 0.0 0.0 0.0 28.428109966331448" Properties=species:S:1:pos:R:3:forces:R:3 energy=-1163.8039124584488 free_energy=-1163.8039124584488 pbc="T T T"
Si       0.00000000       0.00000000      20.92624761      -0.00000000       0.00001078      -0.00004117
Si      11.60572729      13.40113956      23.29525678      -0.00000000       0.00002246       0.00007646
Si      11.60572729       2.23352326      24.08492650       0.00000000       0.00007795       0.00000683
Si      11.60572729       2.23352326      26.45393566       0.00000000      -0.00006412       0.00008339
Si      11.60572729       4.46704652      27.24360538      -0.00000000       0.00008834       0.00005028
Si       0.00000000       4.46704652       1.18450458      -0.00000000       0.00002320       0.00000937
Si       1.93428788       1.11676163      27.24360538      -0.00002181       0.00006335       0.00005242
Si       1.93428788       1.11676163       1.18450458       0.00005035       0.00001024       0.00000444
Si       1.93428788       3.35028489      20.92624761      -0.00002882       0.00004124      -0.00005834
Si       1.93428788       3.35028489      23.29525678       0.00003370       0.00001011       0.00002942
Si       1.93428788       5.58380815      24.08492650       0.00001315       0.00005344      -0.00005423
Si       1.93428788       5.58380815      26.45393566       0.00003218       0.00007407       0.00003540
Si       3.86857576      13.40113956      20.92624761      -0.00003370      -0.00001011      -0.00002942
Si       3.86857576      13.40113956      23.29525678       0.00002882      -0.00004124       0.00005834
Si       3.86857576       2.23352326      24.08492650      -0.00000021      -0.00009342       0.00001004
Si       3.86857576       2.23352326      26.45393566      -0.00008763      -0.00006884       0.00009514
Si       3.86857576       4.46704652      27.24360538       0.00003492      -0.00002840      -0.00001301
Si       3.86857576       4.46704652       1.18450458       0.00008238      -0.00002139       0.00004988
Si       5.80286365       1.11676163      27.24360538       0.00000000      -0.00015383       0.00010986
Si       5.80286365       1.11676163       1.18450458      -0.00000000       0.00000692       0.00009263
Si       5.80286365       3.35028489      20.92624761      -0.00000000      -0.00002246      -0.00007646
Si       5.80286365       3.35028489      23.29525678      -0.00000000      -0.00001078       0.00004117
P        5.80286365       5.58380815      24.08492650       0.00000000      -0.00002946      -0.00007454
Si       5.80286365       5.58380815      26.45393566       0.00000000      -0.00001396       0.00003540
Si       7.73715153      13.40113956      20.92624761       0.00003370      -0.00001011      -0.00002942
Si       7.73715153      13.40113956      23.29525678      -0.00002882      -0.00004124       0.00005834
Si       7.73715153       2.23352326      24.08492650       0.00000021      -0.00009342       0.00001004
Si       7.73715153       2.23352326      26.45393566       0.00008763      -0.00006884       0.00009514
Si       7.73715153       4.46704652      27.24360538      -0.00003492      -0.00002840      -0.00001301
Si       7.73715153       4.46704652       1.18450458      -0.00008238      -0.00002139       0.00004988
Si       9.67143941       1.11676163      27.24360538       0.00002181       0.00006335       0.00005242
Si       9.67143941       1.11676163       1.18450458      -0.00005035       0.00001024       0.00000444
Si       9.67143941       3.35028489      20.92624761       0.00002882       0.00004124      -0.00005834
Si       9.67143941       3.35028489      23.29525678      -0.00003370       0.00001011       0.00002942
Si       9.67143941       5.58380815      24.08492650      -0.00001315       0.00005344      -0.00005423
Si       9.67143941       5.58380815      26.45393566      -0.00003218       0.00007407       0.00003540
Si      11.60572729       6.70056978      20.92624761       0.00000000      -0.00010067      -0.00005881
Si      11.60572729       6.70056978      23.29525678       0.00000000      -0.00003388       0.00008780
Si      11.60572729       8.93409304      24.08492650      -0.00000000      -0.00000373       0.00001293
Si      11.60572729       8.93409304      26.45393566       0.00000000      -0.00004802       0.00005303
Si      11.60572729      11.16761630      27.24360538      -0.00000000       0.00009914       0.00005658
P        0.00000000      11.16761630       1.18450458       0.00000000       0.00004344       0.00000938
Si       1.93428788       7.81733141      27.24360538       0.00008628       0.00003550      -0.00005986
Si       1.93428788       7.81733141       1.18450458       0.00004562       0.00001153       0.00003551
Si       1.93428788      10.05085467      20.92624761       0.00003922      -0.00003654      -0.00007528
Si       1.93428788      10.05085467      23.29525678       0.00001632      -0.00003404       0.00010318
Si       1.93428788      12.28437793      24.08492650      -0.00002206       0.00002430       0.00002830
Si       1.93428788      12.28437793      26.45393566       0.00002268       0.00002334       0.00002279
Si       3.86857576       6.70056978      20.92624761      -0.00001632       0.00003404      -0.00010318
Si       3.86857576       6.70056978      23.29525678      -0.00003922       0.00003654       0.00007528
Si       3.86857576       8.93409304      24.08492650       0.00000961       0.00000102      -0.00006652
Si       3.86857576       8.93409304      26.45393566      -0.00006173       0.00008506       0.00005484
Si       3.86857576      11.16761630      27.24360538       0.00002855      -0.00007676       0.00009221
Si       3.86857576      11.16761630       1.18450458       0.00003368       0.00000730       0.00000317
Si       5.80286365       7.81733141      27.24360538       0.00000000      -0.00004608      -0.00004226
Si       5.80286365       7.81733141       1.18450458       0.00000000       0.00001376       0.00001182
Si       5.80286365      10.05085467      20.92624761      -0.00000000       0.00003388      -0.00008780
Si       5.80286365      10.05085467      23.29525678       0.00000000       0.00010067       0.00005881
Si       5.80286365      12.28437793      24.08492650      -0.00000000      -0.00003125      -0.00001185
Si       5.80286365      12.28437793      26.45393566      -0.00000000      -0.00010045       0.00008987
Si       7.73715153       6.70056978      20.92624761       0.00001632       0.00003404      -0.00010318
Si       7.73715153       6.70056978      23.29525678       0.00003922       0.00003654       0.00007528
Si       7.73715153       8.93409304      24.08492650      -0.00000961       0.00000102      -0.00006652
Si       7.73715153       8.93409304      26.45393566       0.00006173       0.00008506       0.00005484
Si       7.73715153      11.16761630      27.24360538      -0.00002855      -0.00007676       0.00009221
Si       7.73715153      11.16761630       1.18450458      -0.00003368       0.00000730       0.00000317
Si       9.67143941       7.81733141      27.24360538      -0.00008628       0.00003550      -0.00005986
Si       9.67143941       7.81733141       1.18450458      -0.00004562       0.00001153       0.00003551
Si       9.67143941      10.05085467      20.92624761      -0.00003922      -0.00003654      -0.00007528
Si       9.67143941      10.05085467      23.29525678      -0.00001632      -0.00003404       0.00010318
Si       9.67143941      12.28437793      24.08492650       0.00002206       0.00002430       0.00002830
Si       9.67143941      12.28437793      26.45393566      -0.00002268       0.00002334       0.00002279
Si      11.60572729      13.40113956       1.97417430      -0.00000000       0.00003319      -0.00007917
Si      11.60572729      13.40113956       4.34318347       0.00000000      -0.00004008       0.00005582
Si      11.60572729       2.23352326       5.13285319       0.00000000       0.00002809       0.00000581
Si      11.60572729       2.23352326       7.50186235       0.00000000      -0.00001104      -0.00007793
Si      11.60572729       4.46704652       8.29153207       0.00000000      -0.00005043       0.00001814
Si       0.00000000       4.46704652      10.66054124      -0.00000000       0.00009679      -0.00003843
Si       1.93428788       1.11676163       8.29153207      -0.00006771       0.00004410      -0.00003511
Si       1.93428788       1.11676163      10.66054124       0.00007186       0.00002115      -0.00002869
Si       1.93428788       3.35028489       1.97417430      -0.00007497       0.00001268       0.00005066
Si       1.93428788       3.35028489       4.34318347       0.00008470      -0.00003693      -0.00005955
Si       1.93428788       5.58380815       5.13285319       0.00003525       0.00001735       0.00007143
Si       1.93428788       5.58380815       7.50186235       0.00001031       0.00001282      -0.00003322
Si       3.86857576      13.40113956       1.97417430      -0.00003037      -0.00010524       0.00010851
Si       3.86857576      13.40113956       4.34318347       0.00002600       0.00002471      -0.00000384
Si       3.86857576       2.23352326       5.13285319      -0.00007186      -0.00002115       0.00002869
Si       3.86857576       2.23352326       7.50186235       0.00006771      -0.00004410       0.00003511
Si       3.86857576       4.46704652       8.29153207      -0.00007064      -0.00001017       0.00012189
Si       3.86857576       4.46704652      10.66054124      -0.00004230      -0.00008967      -0.00005703
Si       5.80286365       1.11676163       8.29153207      -0.00000000       0.00001104       0.00007793
Si       5.80286365       1.11676163      10.66054124      -0.00000000      -0.00002809      -0.00000581
Si       5.80286365       3.35028489       1.97417430      -0.00000000      -0.00006786       0.00013115
Si       5.80286365       3.35028489       4.34318347      -0.00000000       0.00002602      -0.00000818
P        5.80286365       5.58380815       5.13285319      -0.00000000      -0.00002913       0.00000536
Si       5.80286365       5.58380815       7.50186235       0.00000000       0.00003270       0.00004421
Si       7.73715153      13.40113956       1.97417430       0.00003037      -0.00010524       0.00010851
Si       7.73715153      13.40113956       4.34318347      -0.00002600       0.00002471      -0.00000384
Si       7.73715153       2.23352326       5.13285319       0.00007186      -0.00002115       0.00002869
Si       7.73715153       2.23352326       7.50186235      -0.00006771      -0.00004410       0.00003511
Si       7.73715153       4.46704652       8.29153207       0.00007064      -0.00001017       0.00012189
Si       7.73715153       4.46704652      10.66054124       0.00004230      -0.00008967      -0.00005703
Si       9.67143941       1.11676163       8.29153207       0.00006771       0.00004410      -0.00003511
Si       9.67143941       1.11676163      10.66054124      -0.00007186       0.00002115      -0.00002869
Si       9.67143941       3.35028489       1.97417430       0.00007497       0.00001268       0.00005066
Si       9.67143941       3.35028489       4.34318347      -0.00008470      -0.00003693      -0.00005955
Si       9.67143941       5.58380815       5.13285319      -0.00003525       0.00001735       0.00007143
Si       9.67143941       5.58380815       7.50186235      -0.00001031       0.00001282      -0.00003322
Si      11.60572729       6.70056978       1.97417430       0.00000000      -0.00000383       0.00007924
Si      11.60572729       6.70056978       4.34318347      -0.00000000       0.00003631      -0.00009828
Si      11.60572729       8.93409304       5.13285319      -0.00000000      -0.00007136       0.00014809
Si      11.60572729       8.93409304       7.50186235      -0.00000000      -0.00007770      -0.00016644
Si      11.60572729      11.16761630       8.29153207       0.00000000      -0.00003270      -0.00004421
Si       0.00000000      11.16761630      10.66054124       0.00000000       0.00002913      -0.00000536
Si       1.93428788       7.81733141       8.29153207       0.00000292      -0.00002934       0.00000955
Si       1.93428788       7.81733141      10.66054124      -0.00001492       0.00000518      -0.00002600
Si       1.93428788      10.05085467       1.97417430       0.00006667       0.00001897       0.00004287
Si       1.93428788      10.05085467       4.34318347       0.00006773      -0.00007145       0.00000158
Si       1.93428788      12.28437793       5.13285319       0.00004230       0.00008967       0.00005703
Si       1.93428788      12.28437793       7.50186235       0.00007064       0.00001017      -0.00012189
Si       3.86857576       6.70056978       1.97417430      -0.00002537       0.00003266       0.00006628
Si       3.86857576       6.70056978       4.34318347       0.00006242       0.00005217      -0.00000441
Si       3.86857576       8.93409304       5.13285319       0.00001492      -0.00000518       0.00002600
Si       3.86857576       8.93409304       7.50186235      -0.00000292       0.00002934      -0.00000955
Si       3.86857576      11.16761630       8.29153207      -0.00001031      -0.00001282       0.00003322
Si       3.86857576      11.16761630      10.66054124      -0.00003525      -0.00001735      -0.00007143
Si       5.80286365       7.81733141       8.29153207      -0.00000000       0.00007770       0.00016644
Si       5.80286365       7.81733141      10.66054124       0.00000000       0.00007136      -0.00014809
Si       5.80286365      10.05085467       1.97417430      -0.00000000       0.00000422       0.00008797
Si       5.80286365      10.05085467       4.34318347       0.00000000       0.00004565      -0.00001223
Si       5.80286365      12.28437793       5.13285319       0.00000000      -0.00009679       0.00003843
Si       5.80286365      12.28437793       7.50186235       0.00000000       0.00005043      -0.00001814
Si       7.73715153       6.70056978       1.97417430       0.00002537       0.00003266       0.00006628
Si       7.73715153       6.70056978       4.34318347      -0.00006242       0.00005217      -0.00000441
Si       7.73715153       8.93409304       5.13285319      -0.00001492      -0.00000518       0.00002600
Si       7.73715153       8.93409304       7.50186235       0.00000292       0.00002934      -0.00000955
Si       7.73715153      11.16761630       8.29153207       0.00001031      -0.00001282       0.00003322
Si       7.73715153      11.16761630      10.66054124       0.00003525      -0.00001735      -0.00007143
Si       9.67143941       7.81733141       8.29153207      -0.00000292      -0.00002934       0.00000955
Si       9.67143941       7.81733141      10.66054124       0.00001492       0.00000518      -0.00002600
Si       9.67143941      10.05085467       1.97417430      -0.00006667       0.00001897       0.00004287
Si       9.67143941      10.05085467       4.34318347      -0.00006773      -0.00007145       0.00000158
Si       9.67143941      12.28437793       5.13285319      -0.00004230       0.00008967       0.00005703
Si       9.67143941      12.28437793       7.50186235      -0.00007064       0.00001017      -0.00012189
Si      11.60572729      13.40113956      11.45021096      -0.00000000      -0.00002602       0.00000818
Si      11.60572729      13.40113956      13.81922012       0.00000000       0.00006786      -0.00013115
Si      11.60572729       2.23352326      14.60888984      -0.00000000      -0.00000692      -0.00009263
Si      11.60572729       2.23352326      16.97789901      -0.00000000       0.00015383      -0.00010986
Si      11.60572729       4.46704652      17.76756873      -0.00000000       0.00010045      -0.00008987
Si       0.00000000       4.46704652      20.13657789       0.00000000       0.00003125       0.00001185
Si       1.93428788       1.11676163      17.76756873       0.00008763       0.00006884      -0.00009514
Si       1.93428788       1.11676163      20.13657789       0.00000021       0.00009342      -0.00001004
Si       1.93428788       3.35028489      11.45021096      -0.00002600      -0.00002471       0.00000384
Si       1.93428788       3.35028489      13.81922012       0.00003037       0.00010524      -0.00010851
Si       1.93428788       5.58380815      14.60888984      -0.00003368      -0.00000730      -0.00000317
Si       1.93428788       5.58380815      16.97789901      -0.00002855       0.00007676      -0.00009221
Si       3.86857576      13.40113956      11.45021096      -0.00008470       0.00003693       0.00005955
Si       3.86857576      13.40113956      13.81922012       0.00007497      -0.00001268      -0.00005066
Si       3.86857576       2.23352326      14.60888984      -0.00005035      -0.00001024      -0.00000444
Si       3.86857576       2.23352326      16.97789901       0.00002181      -0.00006335      -0.00005242
Si       3.86857576       4.46704652      17.76756873      -0.00002268      -0.00002334      -0.00002279
Si       3.86857576       4.46704652      20.13657789       0.00002206      -0.00002430      -0.00002830
Si       5.80286365       1.11676163      17.76756873       0.00000000       0.00006412      -0.00008339
Si       5.80286365       1.11676163      20.13657789       0.00000000      -0.00007795      -0.00000683
Si       5.80286365       3.35028489      11.45021096       0.00000000       0.00004008      -0.00005582
Si       5.80286365       3.35028489      13.81922012       0.00000000      -0.00003319       0.00007917
P        5.80286365       5.58380815      14.60888984       0.00000000      -0.00004344      -0.00000938
Si       5.80286365       5.58380815      16.97789901      -0.00000000      -0.00009914      -0.00005658
Si       7.73715153      13.40113956      11.45021096       0.00008470       0.00003693       0.00005955
Si       7.73715153      13.40113956      13.81922012      -0.00007497      -0.00001268      -0.00005066
Si       7.73715153       2.23352326      14.60888984       0.00005035      -0.00001024      -0.00000444
Si       7.73715153       2.23352326      16.97789901      -0.00002181      -0.00006335      -0.00005242
Si       7.73715153       4.46704652      17.76756873       0.00002268      -0.00002334      -0.00002279
Si       7.73715153       4.46704652      20.13657789      -0.00002206      -0.00002430      -0.00002830
Si       9.67143941       1.11676163      17.76756873      -0.00008763       0.00006884      -0.00009514
Si       9.67143941       1.11676163      20.13657789      -0.00000021       0.00009342      -0.00001004
Si       9.67143941       3.35028489      11.45021096       0.00002600      -0.00002471       0.00000384
Si       9.67143941       3.35028489      13.81922012      -0.00003037       0.00010524      -0.00010851
Si       9.67143941       5.58380815      14.60888984       0.00003368      -0.00000730      -0.00000317
Si       9.67143941       5.58380815      16.97789901       0.00002855       0.00007676      -0.00009221
Si      11.60572729       6.70056978      11.45021096       0.00000000      -0.00004565       0.00001223
Si      11.60572729       6.70056978      13.81922012       0.00000000      -0.00000422      -0.00008797
Si      11.60572729       8.93409304      14.60888984       0.00000000      -0.00001376      -0.00001182
Si      11.60572729       8.93409304      16.97789901      -0.00000000       0.00004608       0.00004226
Si      11.60572729      11.16761630      17.76756873       0.00000000       0.00001396      -0.00003540
Si       0.00000000      11.16761630      20.13657789      -0.00000000       0.00002946       0.00007454
Si       1.93428788       7.81733141      17.76756873       0.00006173      -0.00008506      -0.00005484
Si       1.93428788       7.81733141      20.13657789      -0.00000961      -0.00000102       0.00006652
Si       1.93428788      10.05085467      11.45021096      -0.00006242      -0.00005217       0.00000441
Si       1.93428788      10.05085467      13.81922012       0.00002537      -0.00003266      -0.00006628
Si       1.93428788      12.28437793      14.60888984      -0.00008238       0.00002139      -0.00004988
Si       1.93428788      12.28437793      16.97789901      -0.00003492       0.00002840       0.00001301
Si       3.86857576       6.70056978      11.45021096      -0.00006773       0.00007145      -0.00000158
Si       3.86857576       6.70056978      13.81922012      -0.00006667      -0.00001897      -0.00004287
Si       3.86857576       8.93409304      14.60888984      -0.00004562      -0.00001153      -0.00003551
Si       3.86857576       8.93409304      16.97789901      -0.00008628      -0.00003550       0.00005986
Si       3.86857576      11.16761630      17.76756873      -0.00003218      -0.00007407      -0.00003540
Si       3.86857576      11.16761630      20.13657789      -0.00001315      -0.00005344       0.00005423
Si       5.80286365       7.81733141      17.76756873       0.00000000       0.00004802      -0.00005303
Si       5.80286365       7.81733141      20.13657789      -0.00000000       0.00000373      -0.00001293
Si       5.80286365      10.05085467      11.45021096      -0.00000000      -0.00003631       0.00009828
Si       5.80286365      10.05085467      13.81922012       0.00000000       0.00000383      -0.00007924
Si       5.80286365      12.28437793      14.60888984       0.00000000      -0.00002320      -0.00000937
Si       5.80286365      12.28437793      16.97789901      -0.00000000      -0.00008834      -0.00005028
Si       7.73715153       6.70056978      11.45021096       0.00006773       0.00007145      -0.00000158
Si       7.73715153       6.70056978      13.81922012       0.00006667      -0.00001897      -0.00004287
Si       7.73715153       8.93409304      14.60888984       0.00004562      -0.00001153      -0.00003551
Si       7.73715153       8.93409304      16.97789901       0.00008628      -0.00003550       0.00005986
Si       7.73715153      11.16761630      17.76756873       0.00003218      -0.00007407      -0.00003540
Si       7.73715153      11.16761630      20.13657789       0.00001315      -0.00005344       0.00005423
Si       9.67143941       7.81733141      17.76756873      -0.00006173      -0.00008506      -0.00005484
Si       9.67143941       7.81733141      20.13657789       0.00000961      -0.00000102       0.00006652
Si       9.67143941      10.05085467      11.45021096       0.00006242      -0.00005217       0.00000441
Si       9.67143941      10.05085467      13.81922012      -0.00002537      -0.00003266      -0.00006628
Si       9.67143941      12.28437793      14.60888984       0.00008238       0.00002139      -0.00004988
Si       9.67143941      12.28437793      16.97789901       0.00003492       0.00002840       0.00001301
