8
Lattice="5.470992313871248 0.0 0.0 -0.016412976941613745 5.470992313871248 0.0 0.0 0.0 5.470992313871248" Properties=species:S:1:pos:R:3:forces:R:3:energies:R:1 energy=-43.06820104565777 stress="2.3638851951094076e-06 -0.0011276624291321328 1.313368690053215e-16 -0.0011276624291321328 -2.452226368994554e-06 2.9274674411898656e-17 1.313368690053215e-16 2.9274674411898656e-17 6.030722642932362e-08" free_energy=-43.06820104565777 pbc="T T T"
Si      -0.00000000       0.00000000      -0.00097068       0.00000000      -0.00000000       0.00000000      -5.38352513
Si       1.36364483       1.36774808       1.36871875       0.00000000       0.00000000      -0.00000000      -5.38352513
Si      -0.00820649       2.73549616       2.73452548      -0.00000000      -0.00000000       0.00000000      -5.38352513
Si       1.35543835       4.10324424       4.10421491       0.00000000       0.00000000      -0.00000000      -5.38352513
Si       2.73549616       0.00000000       2.73452548      -0.00000000      -0.00000000       0.00000000      -5.38352513
Si       4.09914099       1.36774808       4.10421491      -0.00000000       0.00000000      -0.00000000      -5.38352513
Si       2.72728967       2.73549616      -0.00097068       0.00000000      -0.00000000       0.00000000      -5.38352513
Si       4.09093450       4.10324424       1.36871875      -0.00000000       0.00000000      -0.00000000      -5.38352513
