8
Lattice="5.470992313871248 0.0 0.0 0.016412976941613745 5.470992313871248 0.0 0.0 0.0 5.470992313871248" Properties=species:S:1:pos:R:3:forces:R:3:energies:R:1 energy=-43.06820104565777 stress="2.3638851950222585e-06 0.0011276624291326437 7.040181612223625e-17 0.0011276624291326437 -2.4522263692309243e-06 -7.104764985309813e-17 7.040181612223625e-17 -7.104764985309813e-17 6.030722629944414e-08" free_energy=-43.06820104565777 pbc="T T T"
Si       0.00000000       0.00000000       0.00097068      -0.00000000      -0.00000000      -0.00000000      -5.38352513
Si       1.37185132       1.36774808       1.36677740       0.00000000       0.00000000       0.00000000      -5.38352513
Si       0.00820649       2.73549616       2.73646683      -0.00000000      -0.00000000      -0.00000000      -5.38352513
Si       1.38005781       4.10324424       4.10227356       0.00000000       0.00000000       0.00000000      -5.38352513
Si       2.73549616      -0.00000000       2.73646683       0.00000000       0.00000000      -0.00000000      -5.38352513
Si       4.10734748       1.36774808       4.10227356       0.00000000       0.00000000       0.00000000      -5.38352513
Si       2.74370265       2.73549616       0.00097068      -0.00000000      -0.00000000      -0.00000000      -5.38352513
Si       4.11555397       4.10324424       1.36677740       0.00000000       0.00000000       0.00000000      -5.38352513
