8
Lattice="5.470992313871248 0.0 0.0 -0.0054709923138712485 5.470992313871248 0.0 0.0 0.0 5.470992313871248" Properties=species:S:1:pos:R:3:forces:R:3:energies:R:1 energy=-43.068447272454314 stress="2.630948409288268e-07 -0.00037592065826205155 -2.859947177686938e-17 -0.00037592065826205155 -2.720821291714805e-07 5.630935375799155e-17 -2.859947177686938e-17 5.630935375799155e-17 7.110203679018796e-09" free_energy=-43.068447272454314 pbc="T T T"
Si      -0.00000000      -0.00000000      -0.00032355       0.00000000      -0.00000000      -0.00000000      -5.38355591
Si       1.36638033       1.36774808       1.36807163      -0.00000000      -0.00000000       0.00000000      -5.38355591
Si      -0.00273550       2.73549616       2.73517260      -0.00000000      -0.00000000      -0.00000000      -5.38355591
Si       1.36364483       4.10324424       4.10356779       0.00000000       0.00000000       0.00000000      -5.38355591
Si       2.73549616      -0.00000000       2.73517260      -0.00000000      -0.00000000      -0.00000000      -5.38355591
Si       4.10187649       1.36774808       4.10356779      -0.00000000       0.00000000       0.00000000      -5.38355591
Si       2.73276066       2.73549616      -0.00032355       0.00000000      -0.00000000      -0.00000000      -5.38355591
Si       4.09914099       4.10324424       1.36807163      -0.00000000       0.00000000       0.00000000      -5.38355591
