8
Lattice="5.470992313871248 0.0 0.0 -0.016412976941613745 5.470992313871248 0.0 0.0 0.0 5.470992313871248" Properties=species:S:1:pos:R:3:forces:R:3:energies:R:1 energy=-43.0681079987077 stress="1.9100473663525065e-07 -0.0015064844784359998 -3.045659502819661e-16 -0.0015064844784359998 -6.898112121698805e-06 -3.3297635604320154e-17 -3.045659502819661e-16 -3.3297635604320154e-17 -4.677051519977836e-06" free_energy=-43.0681079987077 pbc="T T T"
Si       0.00000000       0.00000000       0.00000000      -0.00000000      -0.00000000      -0.02396483      -5.38351350
Si       1.36364483       1.36774808       1.36774808      -0.00000000       0.00000000       0.02396483      -5.38351350
Si      -0.00820649       2.73549616       2.73549616      -0.00000000      -0.00000000      -0.02396483      -5.38351350
Si       1.35543835       4.10324424       4.10324424      -0.00000000       0.00000000       0.02396483      -5.38351350
Si       2.73549616       0.00000000       2.73549616       0.00000000      -0.00000000      -0.02396483      -5.38351350
Si       4.09914099       1.36774808       4.10324424       0.00000000       0.00000000       0.02396483      -5.38351350
Si       2.72728967       2.73549616       0.00000000      -0.00000000      -0.00000000      -0.02396483      -5.38351350
Si       4.09093450       4.10324424       1.36774808       0.00000000       0.00000000       0.02396483      -5.38351350
