8
Lattice="5.470992313871248 0.0 0.0 0.0054709923138712485 5.470992313871248 0.0 0.0 0.0 5.470992313871248" Properties=species:S:1:pos:R:3:forces:R:3:energies:R:1 energy=-43.06843693438423 stress="2.166730133149483e-08 0.0005021829261944549 6.169281008936843e-17 0.0005021829261944549 -7.660351057776478e-07 -2.2071329879937766e-17 6.169281008936843e-17 -2.2071329879937766e-17 -5.192407474516435e-07" free_energy=-43.06843693438423 pbc="T T T"
Si       0.00000000       0.00000000       0.00000000      -0.00000000      -0.00000000       0.00798795      -5.38355462
Si       1.36911583       1.36774808       1.36774808      -0.00000000      -0.00000000      -0.00798795      -5.38355462
Si       0.00273550       2.73549616       2.73549616      -0.00000000       0.00000000       0.00798795      -5.38355462
Si       1.37185132       4.10324424       4.10324424      -0.00000000       0.00000000      -0.00798795      -5.38355462
Si       2.73549616       0.00000000       2.73549616      -0.00000000      -0.00000000       0.00798795      -5.38355462
Si       4.10461198       1.36774808       4.10324424       0.00000000      -0.00000000      -0.00798795      -5.38355462
Si       2.73823165       2.73549616       0.00000000      -0.00000000       0.00000000       0.00798795      -5.38355462
Si       4.10734748       4.10324424       1.36774808       0.00000000       0.00000000      -0.00798795      -5.38355462
