8
Lattice="5.470992313871248 0.0 0.0 0.016412976941613745 5.470992313871248 0.0 0.0 0.0 5.470992313871248" Properties=species:S:1:pos:R:3:forces:R:3:energies:R:1 energy=-43.06810799870771 stress="1.910047367358648e-07 0.0015064844784358248 -1.278154901971013e-16 0.0015064844784358248 -6.898112121609604e-06 -1.8875231040615903e-16 -1.278154901971013e-16 -1.8875231040615903e-16 -4.677051520003429e-06" free_energy=-43.06810799870771 pbc="T T T"
Si       0.00000000       0.00000000       0.00000000      -0.00000000      -0.00000000       0.02396483      -5.38351350
Si       1.37185132       1.36774808       1.36774808       0.00000000       0.00000000      -0.02396483      -5.38351350
Si       0.00820649       2.73549616       2.73549616      -0.00000000      -0.00000000       0.02396483      -5.38351350
Si       1.38005781       4.10324424       4.10324424      -0.00000000       0.00000000      -0.02396483      -5.38351350
Si       2.73549616       0.00000000       2.73549616      -0.00000000      -0.00000000       0.02396483      -5.38351350
Si       4.10734748       1.36774808       4.10324424       0.00000000       0.00000000      -0.02396483      -5.38351350
Si       2.74370265       2.73549616       0.00000000      -0.00000000      -0.00000000       0.02396483      -5.38351350
Si       4.11555397       4.10324424       1.36774808       0.00000000       0.00000000      -0.02396483      -5.38351350
