8
Lattice="5.470992313871248 0.0 0.0 -0.0016412976941613743 5.470992313871248 0.0 0.0 0.0 5.470992313871248" Properties=species:S:1:pos:R:3:forces:R:3:energies:R:1 energy=-43.06847528212818 stress="2.410198961770549e-08 -0.00011277732211369132 8.666716951030551e-17 -0.00011277732211369132 -2.4064480483811045e-08 1.3934777008275914e-16 8.666716951030551e-17 1.3934777008275914e-16 1.0630566772637345e-09" free_energy=-43.06847528212818 pbc="T T T"
Si      -0.00000000      -0.00000000      -0.00009707      -0.00000000      -0.00000000      -0.00000000      -5.38355941
Si       1.36733775       1.36774808       1.36784514      -0.00000000      -0.00000000       0.00000000      -5.38355941
Si      -0.00082065       2.73549616       2.73539909       0.00000000       0.00000000      -0.00000000      -5.38355941
Si       1.36651711       4.10324424       4.10334130      -0.00000000      -0.00000000       0.00000000      -5.38355941
Si       2.73549616      -0.00000000       2.73539909       0.00000000       0.00000000      -0.00000000      -5.38355941
Si       4.10283391       1.36774808       4.10334130      -0.00000000      -0.00000000       0.00000000      -5.38355941
Si       2.73467551       2.73549616      -0.00009707       0.00000000       0.00000000      -0.00000000      -5.38355941
Si       4.10201326       4.10324424       1.36784514       0.00000000      -0.00000000       0.00000000      -5.38355941
