8
Lattice="5.472633611565409 0.0 0.0 0.0 5.472633611565409 0.0 0.0 0.0 5.472633611565409" Properties=species:S:1:pos:R:3:forces:R:3:energies:R:1 energy=-43.06844452585442 stress="0.0004545488417079114 -2.3620990946630098e-18 -1.1577221733835935e-17 -2.3620990946630098e-18 0.0004545488417079185 -2.0759067620709285e-17 -1.1577221733835935e-17 -2.0759067620709285e-17 0.00045454884170792107" free_energy=-43.06844452585442 pbc="T T T"
Si       0.00000000       0.00000000       0.00000000      -0.00000000      -0.00000000      -0.00000000      -5.38355557
Si       1.36815840       1.36815840       1.36815840       0.00000000       0.00000000       0.00000000      -5.38355557
Si       0.00000000       2.73631681       2.73631681      -0.00000000       0.00000000      -0.00000000      -5.38355557
Si       1.36815840       4.10447521       4.10447521      -0.00000000       0.00000000       0.00000000      -5.38355557
Si       2.73631681       0.00000000       2.73631681      -0.00000000      -0.00000000      -0.00000000      -5.38355557
Si       4.10447521       1.36815840       4.10447521       0.00000000      -0.00000000       0.00000000      -5.38355557
Si       2.73631681       2.73631681       0.00000000      -0.00000000      -0.00000000       0.00000000      -5.38355557
Si       4.10447521       4.10447521       1.36815840       0.00000000       0.00000000      -0.00000000      -5.38355557
