8
Lattice="5.465521321557377 0.0 0.0 0.0 5.465521321557377 0.0 0.0 0.0 5.465521321557377" Properties=species:S:1:pos:R:3:forces:R:3:energies:R:1 energy=-43.0681045264181 stress="-0.001525293028203303 1.704500375066606e-16 6.431935654748697e-17 1.704500375066606e-16 -0.0015252930282032894 7.618443356922472e-17 6.431935654748697e-17 7.618443356922472e-17 -0.001525293028203311" free_energy=-43.0681045264181 pbc="T T T"
Si       0.00000000       0.00000000       0.00000000      -0.00000000      -0.00000000       0.00000000      -5.38351307
Si       1.36638033       1.36638033       1.36638033      -0.00000000      -0.00000000      -0.00000000      -5.38351307
Si       0.00000000       2.73276066       2.73276066      -0.00000000      -0.00000000       0.00000000      -5.38351307
Si       1.36638033       4.09914099       4.09914099       0.00000000       0.00000000       0.00000000      -5.38351307
Si       2.73276066       0.00000000       2.73276066      -0.00000000      -0.00000000       0.00000000      -5.38351307
Si       4.09914099       1.36638033       4.09914099       0.00000000       0.00000000       0.00000000      -5.38351307
Si       2.73276066       2.73276066       0.00000000      -0.00000000      -0.00000000       0.00000000      -5.38351307
Si       4.09914099       4.09914099       1.36638033       0.00000000       0.00000000      -0.00000000      -5.38351307
