8
Lattice="5.454579336929634 0.0 0.0 0.0 5.454579336929634 0.0 0.0 0.0 5.454579336929634" Properties=species:S:1:pos:R:3:forces:R:3:energies:R:1 energy=-43.06510222511135 stress="-0.004623196796231341 -2.1739034224809673e-16 -1.9769944775011756e-16 -2.1739034224809673e-16 -0.0046231967962313625 -1.7975611813399557e-16 -1.9769944775011756e-16 -1.7975611813399557e-16 -0.004623196796231371" free_energy=-43.06510222511135 pbc="T T T"
Si       0.00000000       0.00000000       0.00000000      -0.00000000      -0.00000000      -0.00000000      -5.38313778
Si       1.36364483       1.36364483       1.36364483       0.00000000       0.00000000       0.00000000      -5.38313778
Si       0.00000000       2.72728967       2.72728967      -0.00000000      -0.00000000      -0.00000000      -5.38313778
Si       1.36364483       4.09093450       4.09093450       0.00000000       0.00000000       0.00000000      -5.38313778
Si       2.72728967       0.00000000       2.72728967      -0.00000000      -0.00000000      -0.00000000      -5.38313778
Si       4.09093450       1.36364483       4.09093450       0.00000000       0.00000000       0.00000000      -5.38313778
Si       2.72728967       2.72728967       0.00000000      -0.00000000      -0.00000000      -0.00000000      -5.38313778
Si       4.09093450       4.09093450       1.36364483       0.00000000       0.00000000       0.00000000      -5.38313778
