8
Lattice="5.487405290812861 0.0 0.0 0.0 5.487405290812861 0.0 0.0 0.0 5.487405290812861" Properties=species:S:1:pos:R:3:forces:R:3:energies:R:1 energy=-43.06514412021511 stress="0.004483293486267139 -2.7164930211310288e-17 -2.0325106428889453e-17 -2.7164930211310288e-17 0.004483293486267119 -1.862575184970248e-17 -2.0325106428889453e-17 -1.862575184970248e-17 0.004483293486267113" free_energy=-43.06514412021511 pbc="T T T"
Si       0.00000000       0.00000000       0.00000000      -0.00000000      -0.00000000      -0.00000000      -5.38314302
Si       1.37185132       1.37185132       1.37185132       0.00000000       0.00000000       0.00000000      -5.38314302
Si       0.00000000       2.74370265       2.74370265      -0.00000000      -0.00000000      -0.00000000      -5.38314302
Si       1.37185132       4.11555397       4.11555397      -0.00000000       0.00000000       0.00000000      -5.38314302
Si       2.74370265       0.00000000       2.74370265      -0.00000000      -0.00000000      -0.00000000      -5.38314302
Si       4.11555397       1.37185132       4.11555397       0.00000000      -0.00000000       0.00000000      -5.38314302
Si       2.74370265       2.74370265       0.00000000      -0.00000000      -0.00000000      -0.00000000      -5.38314302
Si       4.11555397       4.11555397       1.37185132       0.00000000       0.00000000      -0.00000000      -5.38314302
