8
Lattice="5.469351016177087 0.0 0.0 0.0 5.469351016177087 0.0 0.0 0.0 5.469351016177087" Properties=species:S:1:pos:R:3:forces:R:3:energies:R:1 energy=-43.06844448408368 stress="-0.00045594725980385454 7.116456712972336e-17 6.434512327152224e-17 7.116456712972336e-17 -0.0004559472598038721 6.501265223571568e-17 6.434512327152224e-17 6.501265223571568e-17 -0.00045594725980384576" free_energy=-43.06844448408368 pbc="T T T"
Si       0.00000000       0.00000000       0.00000000      -0.00000000      -0.00000000      -0.00000000      -5.38355556
Si       1.36733775       1.36733775       1.36733775      -0.00000000      -0.00000000      -0.00000000      -5.38355556
Si       0.00000000       2.73467551       2.73467551       0.00000000       0.00000000       0.00000000      -5.38355556
Si       1.36733775       4.10201326       4.10201326      -0.00000000       0.00000000       0.00000000      -5.38355556
Si       2.73467551       0.00000000       2.73467551       0.00000000       0.00000000       0.00000000      -5.38355556
Si       4.10201326       1.36733775       4.10201326       0.00000000      -0.00000000       0.00000000      -5.38355556
Si       2.73467551       2.73467551       0.00000000       0.00000000       0.00000000       0.00000000      -5.38355556
Si       4.10201326       4.10201326       1.36733775       0.00000000       0.00000000      -0.00000000      -5.38355556
