8
Lattice="5.465521321557377 0.0 0.0 0.0 5.476463306185119 0.0 0.0 0.0 5.470992313871248" Properties=species:S:1:pos:R:3:forces:R:3:energies:R:1 energy=-43.068407091971025 stress="-0.0004329065821778516 -2.056225084245757e-16 -4.24793916654414e-17 -2.056225084245757e-16 0.0004337453882705306 -1.0459080764040746e-16 -4.24793916654414e-17 -1.0459080764040746e-16 -3.0545755594087367e-07" free_energy=-43.068407091971025 pbc="T T T"
Si       0.00000000       0.00000000       0.00000000      -0.00000000      -0.00000000      -0.00000000      -5.38355089
Si       1.36638033       1.36911583       1.36774808      -0.00000000      -0.00000000       0.00000000      -5.38355089
Si       0.00000000       2.73823165       2.73549616      -0.00000000      -0.00000000      -0.00000000      -5.38355089
Si       1.36638033       4.10734748       4.10324424       0.00000000       0.00000000       0.00000000      -5.38355089
Si       2.73276066       0.00000000       2.73549616      -0.00000000      -0.00000000      -0.00000000      -5.38355089
Si       4.09914099       1.36911583       4.10324424       0.00000000       0.00000000       0.00000000      -5.38355089
Si       2.73276066       2.73823165       0.00000000      -0.00000000      -0.00000000      -0.00000000      -5.38355089
Si       4.09914099       4.10734748       1.36774808       0.00000000       0.00000000       0.00000000      -5.38355089
