216
Lattice="11.605727294873521 0.0 0.0 0.0 13.401139555673227 0.0 0.0 0.0 28.428109966331448" Properties=species:S:1:pos:R:3:forces:R:3:energies:R:1 energy=-1164.7863525657342 stress="0.003122854654829536 -8.789402744644668e-18 1.206130982918842e-17 -8.789402744644668e-18 0.003195267707804249 -2.8324391921995083e-05 1.206130982918842e-17 -2.8324391921995083e-05 0.0029911671327976295" free_energy=-1164.7863525657342 pbc="T T T"
Si       0.00000000       0.00001797      20.94554300      -0.00000000       0.00000243      -0.00001304      -5.38612207
Si       0.00000000       0.00259578      23.31701585       0.00000000      -0.00006005       0.00004378      -5.38773212
Si      11.60572729       2.24065399      24.10383887      -0.00000000       0.00003556      -0.00004057      -5.39048433
Si       0.00000000       2.24391788      26.47207560      -0.00000000      -0.00010167       0.00000366      -5.39648132
Si       0.00000000       4.49174706      27.25548351      -0.00000000       0.00011974      -0.00003618      -5.40824266
Si      11.60572729       4.46857478       1.18922687      -0.00000000      -0.00000769      -0.00011623      -5.40147812
Si       1.94104421       1.11730302      27.24497659       0.00006965       0.00007716       0.00000635      -5.41061750
Si       1.94104421       1.11622024       1.18313338       0.00006965      -0.00007716      -0.00000635      -5.41061750
Si       1.93625092       3.35226758      20.94849430      -0.00005558       0.00001520      -0.00005892      -5.38585809
Si       1.94342559       3.35886970      23.32289564       0.00000977      -0.00009288       0.00006179      -5.38496200
Si       1.94632842       5.59638085      24.11560690      -0.00006112       0.00001415      -0.00003542      -5.38311073
Si       1.96459690       5.60418863      26.47393049      -0.00000497      -0.00004560       0.00000589      -5.40022628
Si       3.86999742      13.39744426      20.94716468       0.00000971       0.00002434       0.00004033      -5.38621482
Si       3.87197027      13.38874242      23.32131963      -0.00006717      -0.00009625       0.00003672      -5.38758931
Si       3.87437394       2.22815659      24.10721586       0.00001995      -0.00003187      -0.00001388      -5.39205286
Si       3.88241530       2.24438358      26.47120217       0.00000027      -0.00008000       0.00005383      -5.39891342
Si       3.89207040       4.50249393      27.24945917      -0.00003015       0.00005117      -0.00001343      -5.34959039
Si       3.88601824       4.50999477       1.17754917      -0.00000453      -0.00004345       0.00001025      -5.35307768
Si       5.80286365       1.09160633      27.24724581       0.00000000      -0.00001432      -0.00007563      -5.40425214
Si       5.80286365       1.14191693       1.18086416      -0.00000000       0.00001432       0.00007563      -5.40425214
Si       5.80286365       3.35037791      20.94716841      -0.00000000      -0.00007671      -0.00002697      -5.39474851
Si       5.80286365       3.34406025      23.31797805       0.00000000      -0.00009164       0.00007724      -5.39234579
Si       5.80286365       5.58541934      24.09486291      -0.00000000       0.00008141      -0.00009260      -5.38548280
P        5.80286365       5.61048072      26.40920677       0.00000000      -0.00001377      -0.00006577      -5.76849966
Si       7.73572987      13.39744426      20.94716468      -0.00000971       0.00002434       0.00004033      -5.38621482
Si       7.73375702      13.38874242      23.32131963       0.00006717      -0.00009625       0.00003672      -5.38758931
Si       7.73135335       2.22815659      24.10721586      -0.00001995      -0.00003187      -0.00001388      -5.39205286
Si       7.72331199       2.24438358      26.47120217      -0.00000027      -0.00008000       0.00005383      -5.39891342
Si       7.71365690       4.50249393      27.24945917       0.00003015       0.00005117      -0.00001343      -5.34959039
Si       7.71970905       4.50999477       1.17754917       0.00000453      -0.00004345       0.00001025      -5.35307768
Si       9.66468309       1.11730302      27.24497659      -0.00006965       0.00007716       0.00000635      -5.41061750
Si       9.66468309       1.11622024       1.18313338      -0.00006965      -0.00007716      -0.00000635      -5.41061750
Si       9.66947638       3.35226758      20.94849430       0.00005558       0.00001520      -0.00005892      -5.38585809
Si       9.66230171       3.35886970      23.32289564      -0.00000977      -0.00009288       0.00006179      -5.38496200
Si       9.65939887       5.59638085      24.11560690       0.00006112       0.00001415      -0.00003542      -5.38311073
Si       9.64113040       5.60418863      26.47393049       0.00000497      -0.00004560       0.00000589      -5.40022628
Si       0.00000000       6.70286522      20.95183598       0.00000000      -0.00002169      -0.00013082      -5.38650192
Si       0.00000000       6.71030141      23.32914864      -0.00000000       0.00009940      -0.00000291      -5.38570519
Si       0.00000000       8.94216914      24.11325380       0.00000000       0.00001911      -0.00005212      -5.39406107
Si       0.00000000       8.93521262      26.47184555      -0.00000000      -0.00003430      -0.00004286      -5.40868822
Si       0.00000000      11.16608803      27.23888310       0.00000000       0.00000769       0.00011623      -5.40147812
Si      11.60572729      11.14291575       1.17262645      -0.00000000      -0.00011974       0.00003618      -5.40824266
Si       1.96738358       7.82119330      27.24988279      -0.00003183       0.00008492      -0.00002728      -5.35240028
Si       1.96738358       7.81346952       1.17822718      -0.00003183      -0.00008492       0.00002728      -5.35240028
Si       1.93541056      10.04947194      20.94831367      -0.00004369      -0.00004969      -0.00008872      -5.39549696
Si       1.93143503      10.05096854      23.31971093      -0.00001299      -0.00000963      -0.00001419      -5.39407128
Si       1.93360818      12.28015405      24.10609658      -0.00003381       0.00004235      -0.00006072      -5.39419713
Si       1.94398258      12.27258834      26.46955357       0.00000997      -0.00000240       0.00000906      -5.39545071
Si       3.87026382       6.70163890      20.95585173      -0.00007096       0.00000415       0.00001210      -5.39969287
Si       3.87892082       6.70580216      23.33972274      -0.00001515      -0.00009207       0.00000807      -5.37960377
Si       3.87044484       8.92977944      24.09911713      -0.00000390       0.00007777      -0.00000065      -5.38689414
P        3.88294194       8.91432132      26.41377224      -0.00000807       0.00003059      -0.00008812      -5.76180595
Si       3.88601824      11.12466804      27.25056080      -0.00000453       0.00004345      -0.00001025      -5.35307768
Si       3.89207040      11.13216889       1.17865079      -0.00003015      -0.00005117       0.00001343      -5.34959039
P        5.80286365       7.81023840      27.03621732      -0.00000000       0.00014193      -0.00000988      -4.91197213
P        5.80286365       7.82442442       1.39189264       0.00000000      -0.00014193       0.00000988      -4.91197213
Si       5.80286365      10.04538040      20.95572775      -0.00000000       0.00006851       0.00003134      -5.39961750
Si       5.80286365      10.03166358      23.34035593      -0.00000000      -0.00008881      -0.00004164      -5.37902861
Si       5.80286365      12.25977270      24.11251002      -0.00000000       0.00005991       0.00006082      -5.38329201
Si       5.80286365      12.23753389      26.47087809       0.00000000      -0.00007543       0.00014480      -5.39559197
Si       7.73546347       6.70163890      20.95585173       0.00007096       0.00000415       0.00001210      -5.39969287
Si       7.72680647       6.70580216      23.33972274       0.00001515      -0.00009207       0.00000807      -5.37960377
Si       7.73528245       8.92977944      24.09911713       0.00000390       0.00007777      -0.00000065      -5.38689414
P        7.72278535       8.91432132      26.41377224       0.00000807       0.00003059      -0.00008812      -5.76180595
Si       7.71970905      11.12466804      27.25056080       0.00000453       0.00004345      -0.00001025      -5.35307768
Si       7.71365690      11.13216889       1.17865079       0.00003015      -0.00005117       0.00001343      -5.34959039
Si       9.63834372       7.82119330      27.24988279       0.00003183       0.00008492      -0.00002728      -5.35240028
Si       9.63834372       7.81346952       1.17822718       0.00003183      -0.00008492       0.00002728      -5.35240028
Si       9.67031673      10.04947194      20.94831367       0.00004369      -0.00004969      -0.00008872      -5.39549696
Si       9.67429226      10.05096854      23.31971093       0.00001299      -0.00000963      -0.00001419      -5.39407128
Si       9.67211911      12.28015405      24.10609658       0.00003381       0.00004235      -0.00006072      -5.39419713
Si       9.66174471      12.27258834      26.46955357      -0.00000997      -0.00000240       0.00000906      -5.39545071
Si      11.60572729      13.39074494       1.95603437      -0.00000000       0.00010167      -0.00000366      -5.39648132
Si       0.00000000      13.39400883       4.32427110      -0.00000000      -0.00003556       0.00004057      -5.39048433
Si       0.00000000       2.23092748       5.11109412      -0.00000000       0.00006005      -0.00004378      -5.38773212
Si       0.00000000       2.23350529       7.48256696      -0.00000000      -0.00000243       0.00001304      -5.38612207
Si       0.00000000       4.46969123       8.27583530      -0.00000000      -0.00003124       0.00002951      -5.38531114
Si      11.60572729       4.46774903      10.64858655       0.00000000       0.00000835      -0.00001745      -5.38417858
Si       1.93585751       1.11641491       8.27422179      -0.00000051       0.00002561       0.00002228      -5.38258881
Si       1.93464927       1.11673479      10.64845971      -0.00000366       0.00004618      -0.00002002      -5.38376292
Si       1.94398258       3.36207447       1.95855640       0.00000997       0.00000240      -0.00000906      -5.39545071
Si       1.93360818       3.35450877       4.32201339      -0.00003381      -0.00004235       0.00006072      -5.39419713
Si       1.93143503       5.58369427       5.10839903      -0.00001299       0.00000963       0.00001419      -5.39407128
Si       1.93541056       5.58519087       7.47979629      -0.00004369       0.00004969       0.00008872      -5.39549696
Si       3.88241530      13.39027923       1.95690780       0.00000027       0.00008000      -0.00005383      -5.39891342
Si       3.87437394       0.00536667       4.32089410       0.00001995       0.00003187       0.00001388      -5.39205286
Si       3.87197027       2.24592040       5.10679034      -0.00006717       0.00009625      -0.00003672      -5.38758931
Si       3.86999742       2.23721855       7.48094529       0.00000971      -0.00002434      -0.00004033      -5.38621482
Si       3.87175282       4.47095238       8.27575732       0.00002816       0.00006413       0.00003348      -5.38846487
Si       3.86920785       4.46808199      10.64830077       0.00002509      -0.00003208       0.00007524      -5.38366088
Si       5.80286365       1.11675702       8.27569440      -0.00000000       0.00003918      -0.00001274      -5.38506188
Si       5.80286365       1.11675120      10.64896965      -0.00000000       0.00005195      -0.00002210      -5.38366504
Si       5.80286365       3.39712892       1.95723188       0.00000000       0.00007543      -0.00014480      -5.39559197
Si       5.80286365       3.37489012       4.31559994       0.00000000      -0.00005991      -0.00006082      -5.38329201
Si       5.80286365       5.60299923       5.08775403      -0.00000000       0.00008881       0.00004164      -5.37902861
Si       5.80286365       5.58928241       7.47238221      -0.00000000      -0.00006851      -0.00003134      -5.39961750
Si       7.72331199      13.39027923       1.95690780      -0.00000027       0.00008000      -0.00005383      -5.39891342
Si       7.73135335       0.00536667       4.32089410      -0.00001995       0.00003187       0.00001388      -5.39205286
Si       7.73375702       2.24592040       5.10679034       0.00006717       0.00009625      -0.00003672      -5.38758931
Si       7.73572987       2.23721855       7.48094529      -0.00000971      -0.00002434      -0.00004033      -5.38621482
Si       7.73397448       4.47095238       8.27575732      -0.00002816       0.00006413       0.00003348      -5.38846487
Si       7.73651944       4.46808199      10.64830077      -0.00002509      -0.00003208       0.00007524      -5.38366088
Si       9.66986978       1.11641491       8.27422179       0.00000051       0.00002561       0.00002228      -5.38258881
Si       9.67107803       1.11673479      10.64845971       0.00000366       0.00004618      -0.00002002      -5.38376292
Si       9.66174471       3.36207447       1.95855640      -0.00000997       0.00000240      -0.00000906      -5.39545071
Si       9.67211911       3.35450877       4.32201339       0.00003381      -0.00004235       0.00006072      -5.39419713
Si       9.67429226       5.58369427       5.10839903       0.00001299       0.00000963       0.00001419      -5.39407128
Si       9.67031673       5.58519087       7.47979629       0.00004369       0.00004969       0.00008872      -5.39549696
Si       0.00000000       6.69945020       1.95626442      -0.00000000       0.00003430       0.00004286      -5.40868822
Si       0.00000000       6.69249367       4.31485617      -0.00000000      -0.00001911       0.00005212      -5.39406107
Si       0.00000000       8.92436141       5.09896133      -0.00000000      -0.00009940       0.00000291      -5.38570519
Si      11.60572729       8.93179760       7.47627399       0.00000000       0.00002169       0.00013082      -5.38650192
Si      11.60572729      11.16561870       8.27243383      -0.00000000       0.00006495       0.00004740      -5.38392847
Si      11.60572729      11.16756050      10.64730871       0.00000000       0.00004558       0.00001164      -5.38317678
Si       1.93635508       7.81944945       8.27435035       0.00002122      -0.00000458       0.00000450      -5.38883443
Si       1.93452897       7.81807397      10.64725457       0.00003140       0.00002819       0.00003493      -5.38341939
Si       1.96459690      10.03047419       1.95417947      -0.00000497       0.00004560      -0.00000589      -5.40022628
Si       1.94632842      10.03828196       4.31250306      -0.00006112      -0.00001415       0.00003542      -5.38311073
Si       1.94342559      12.27579312       5.10521432       0.00000977       0.00009288      -0.00006179      -5.38496200
Si       1.93625092      12.28239524       7.47961567      -0.00005558      -0.00001520       0.00005892      -5.38585809
P        3.88294194       6.72034150       2.01433772      -0.00000807      -0.00003059       0.00008812      -5.76180595
Si       3.87044484       6.70488337       4.32899284      -0.00000390      -0.00007777       0.00000065      -5.38689414
Si       3.87892082       8.92886065       5.08838722      -0.00001515       0.00009207      -0.00000807      -5.37960377
Si       3.87026382       8.93302391       7.47225824      -0.00007096      -0.00000415      -0.00001210      -5.39969287
Si       3.86923946      11.16408526       8.27589359      -0.00003231       0.00008282      -0.00005185      -5.38879064
Si       3.86859887      11.16703029      10.64833650      -0.00001250       0.00000311      -0.00000657      -5.38341697
Si       5.80286365       7.81904226       8.27679098      -0.00000000       0.00006774       0.00008968      -5.39046277
Si       5.80286365       7.81787263      10.64795929      -0.00000000      -0.00002470       0.00016732      -5.38340061
P        5.80286365      10.02418210       2.01890320       0.00000000       0.00001377       0.00006577      -5.76849966
Si       5.80286365      10.04924348       4.33324705      -0.00000000      -0.00008141       0.00009260      -5.38548280
Si       5.80286365      12.29060257       5.11013191       0.00000000       0.00009164      -0.00007724      -5.39234579
Si       5.80286365      12.28428491       7.48094156       0.00000000       0.00007671       0.00002697      -5.39474851
P        7.72278535       6.72034150       2.01433772       0.00000807      -0.00003059       0.00008812      -5.76180595
Si       7.73528245       6.70488337       4.32899284       0.00000390      -0.00007777       0.00000065      -5.38689414
Si       7.72680647       8.92886065       5.08838722       0.00001515       0.00009207      -0.00000807      -5.37960377
Si       7.73546347       8.93302391       7.47225824       0.00007096      -0.00000415      -0.00001210      -5.39969287
Si       7.73648783      11.16408526       8.27589359       0.00003231       0.00008282      -0.00005185      -5.38879064
Si       7.73712842      11.16703029      10.64833650       0.00001250       0.00000311      -0.00000657      -5.38341697
Si       9.66937222       7.81944945       8.27435035      -0.00002122      -0.00000458       0.00000450      -5.38883443
Si       9.67119832       7.81807397      10.64725457      -0.00003140       0.00002819       0.00003493      -5.38341939
Si       9.64113040      10.03047419       1.95417947       0.00000497       0.00004560      -0.00000589      -5.40022628
Si       9.65939887      10.03828196       4.31250306       0.00006112      -0.00001415       0.00003542      -5.38311073
Si       9.66230171      12.27579312       5.10521432      -0.00000977       0.00009288      -0.00006179      -5.38496200
Si       9.66947638      12.28239524       7.47961567       0.00005558      -0.00001520       0.00005892      -5.38585809
Si       0.00000000      13.40107492      11.44253466       0.00000000       0.00002999      -0.00002614      -5.38328620
Si       0.00000000      13.40107567      13.81681968       0.00000000      -0.00005712       0.00003091      -5.38337728
Si       0.00000000       2.23358714      14.61129029      -0.00000000       0.00005712      -0.00003091      -5.38337728
Si      11.60572729       2.23358789      16.98557530       0.00000000      -0.00002999       0.00002614      -5.38328620
Si      11.60572729       4.46710231      17.78080126      -0.00000000      -0.00004558      -0.00001164      -5.38317678
Si      11.60572729       4.46904412      20.15567613      -0.00000000      -0.00006495      -0.00004740      -5.38392847
Si       1.93464927       1.11678847      17.77965026      -0.00000366      -0.00004618       0.00002002      -5.38376292
Si       1.93585751       1.11710835      20.15388818      -0.00000051      -0.00002561      -0.00002228      -5.38258881
Si       1.93459539       3.35074168      11.44252555       0.00000780       0.00002363       0.00006690      -5.38324227
Si       1.93431027       3.35037162      13.81669455       0.00003357      -0.00002564       0.00004420      -5.38354405
Si       1.93417975       5.58387836      14.61120743      -0.00002547      -0.00001852      -0.00000596      -5.38338246
Si       1.93419083       5.58379376      16.98547694      -0.00000911      -0.00004427       0.00006538      -5.38370324
Si       3.86862898      13.40086978      11.44293370      -0.00002313       0.00002602      -0.00005358      -5.38344564
Si       3.86855788      13.40106774      13.81690184      -0.00005285       0.00001203       0.00002498      -5.38345869
Si       3.86855788       2.23359507      14.61120813      -0.00005285      -0.00001203      -0.00002498      -5.38345869
Si       3.86862898       2.23379304      16.98517627      -0.00002313      -0.00002602       0.00005358      -5.38344564
Si       3.86859887       4.46763253      17.77977347      -0.00001250      -0.00000311       0.00000657      -5.38341697
Si       3.86923946       4.47057756      20.15221638      -0.00003231      -0.00008282       0.00005185      -5.38879064
Si       5.80286365       1.11677206      17.77914032      -0.00000000      -0.00005195       0.00002210      -5.38366504
Si       5.80286365       1.11676624      20.15241557       0.00000000      -0.00003918       0.00001274      -5.38506188
Si       5.80286365       3.35078326      11.44292171      -0.00000000       0.00005410      -0.00003576      -5.38358415
Si       5.80286365       3.35042488      13.81689834      -0.00000000       0.00000594       0.00008261      -5.38352597
Si       5.80286365       5.58398087      14.61110760      -0.00000000      -0.00001388       0.00002641      -5.38340834
Si       5.80286365       5.58415649      16.98526905      -0.00000000      -0.00000306       0.00007395      -5.38387951
Si       7.73709831      13.40086978      11.44293370       0.00002313       0.00002602      -0.00005358      -5.38344564
Si       7.73716942      13.40106774      13.81690184       0.00005285       0.00001203       0.00002498      -5.38345869
Si       7.73716942       2.23359507      14.61120813       0.00005285      -0.00001203      -0.00002498      -5.38345869
Si       7.73709831       2.23379304      16.98517627       0.00002313      -0.00002602       0.00005358      -5.38344564
Si       7.73712842       4.46763253      17.77977347       0.00001250      -0.00000311       0.00000657      -5.38341697
Si       7.73648783       4.47057756      20.15221638       0.00003231      -0.00008282       0.00005185      -5.38879064
Si       9.67107803       1.11678847      17.77965026       0.00000366      -0.00004618       0.00002002      -5.38376292
Si       9.66986978       1.11710835      20.15388818       0.00000051      -0.00002561      -0.00002228      -5.38258881
Si       9.67113190       3.35074168      11.44252555      -0.00000780       0.00002363       0.00006690      -5.38324227
Si       9.67141703       3.35037162      13.81669455      -0.00003357      -0.00002564       0.00004420      -5.38354405
Si       9.67154755       5.58387836      14.61120743       0.00002547      -0.00001852      -0.00000596      -5.38338246
Si       9.67153646       5.58379376      16.98547694       0.00000911      -0.00004427       0.00006538      -5.38370324
Si       0.00000000       6.70135026      11.44220611      -0.00000000       0.00000900       0.00002025      -5.38346340
Si       0.00000000       6.70073803      13.81646845      -0.00000000       0.00005081       0.00000797      -5.38354668
Si       0.00000000       8.93392479      14.61164152      -0.00000000      -0.00005081      -0.00000797      -5.38354668
Si       0.00000000       8.93331256      16.98590385      -0.00000000      -0.00000900      -0.00002025      -5.38346340
Si       0.00000000      11.16691379      17.77952342       0.00000000      -0.00000835       0.00001745      -5.38417858
Si      11.60572729      11.16497158      20.15227467       0.00000000       0.00003124      -0.00002951      -5.38531114
Si       1.93452897       7.81658884      17.78085540       0.00003140      -0.00002819      -0.00003493      -5.38341939
Si       1.93635508       7.81521337      20.15375962       0.00002122       0.00000458      -0.00000450      -5.38883443
Si       1.93419083      10.05086905      11.44263303      -0.00000911       0.00004427      -0.00006538      -5.38370324
Si       1.93417975      10.05078445      13.81690254      -0.00002547       0.00001852       0.00000596      -5.38338246
Si       1.93431027      12.28429119      14.61141542       0.00003357       0.00002564      -0.00004420      -5.38354405
Si       1.93459539      12.28392113      16.98558442       0.00000780      -0.00002363      -0.00006690      -5.38324227
Si       3.86884119       6.70145963      11.44236058       0.00003736      -0.00000487      -0.00007046      -5.38378414
Si       3.86849690       6.70069802      13.81665886       0.00005877      -0.00001818       0.00002447      -5.38347012
Si       3.86849690       8.93396480      14.61145111       0.00005877       0.00001818      -0.00002447      -5.38347012
Si       3.86884119       8.93320319      16.98574939       0.00003736       0.00000487       0.00007046      -5.38378414
Si       3.86920785      11.16658082      17.77980919       0.00002509       0.00003208      -0.00007524      -5.38366088
Si       3.87175282      11.16371044      20.15235265       0.00002816      -0.00006413      -0.00003348      -5.38846487
Si       5.80286365       7.81679018      17.78015068      -0.00000000       0.00002470      -0.00016732      -5.38340061
Si       5.80286365       7.81562056      20.15131899       0.00000000      -0.00006774      -0.00008968      -5.39046277
Si       5.80286365      10.05050632      11.44284092      -0.00000000       0.00000306      -0.00007395      -5.38387951
Si       5.80286365      10.05068195      13.81700237      -0.00000000       0.00001388      -0.00002641      -5.38340834
Si       5.80286365      12.28423794      14.61121163       0.00000000      -0.00000594      -0.00008261      -5.38352597
Si       5.80286365      12.28387955      16.98518825       0.00000000      -0.00005410       0.00003576      -5.38358415
Si       7.73688611       6.70145963      11.44236058      -0.00003736      -0.00000487      -0.00007046      -5.38378414
Si       7.73723039       6.70069802      13.81665886      -0.00005877      -0.00001818       0.00002447      -5.38347012
Si       7.73723039       8.93396480      14.61145111      -0.00005877       0.00001818      -0.00002447      -5.38347012
Si       7.73688611       8.93320319      16.98574939      -0.00003736       0.00000487       0.00007046      -5.38378414
Si       7.73651944      11.16658082      17.77980919      -0.00002509       0.00003208      -0.00007524      -5.38366088
Si       7.73397448      11.16371044      20.15235265      -0.00002816      -0.00006413      -0.00003348      -5.38846487
Si       9.67119832       7.81658884      17.78085540      -0.00003140      -0.00002819      -0.00003493      -5.38341939
Si       9.66937222       7.81521337      20.15375962      -0.00002122       0.00000458      -0.00000450      -5.38883443
Si       9.67153646      10.05086905      11.44263303       0.00000911       0.00004427      -0.00006538      -5.38370324
Si       9.67154755      10.05078445      13.81690254       0.00002547       0.00001852       0.00000596      -5.38338246
Si       9.67141703      12.28429119      14.61141542      -0.00003357       0.00002564      -0.00004420      -5.38354405
Si       9.67113190      12.28392113      16.98558442      -0.00000780      -0.00002363      -0.00006690      -5.38324227
