216
Lattice="11.605727294873521 0.0 0.0 0.0 13.401139555673227 0.0 0.0 0.0 28.428109966331448" Properties=species:S:1:pos:R:3:forces:R:3 energy=-1164.1230755941604 free_energy=-1164.1230755941604 pbc="T T T"
Si       0.00000000       0.00000000      20.92624761      -0.00001787      -0.00001120      -0.00002833
Si      11.60572729      13.40113956      23.29525678      -0.00001211      -0.00003815      -0.00003356
Si      11.60572729       2.23352326      24.08492650       0.00000711      -0.00002795      -0.00006169
Si      11.60572729       2.23352326      26.45393566       0.00001156       0.00004139      -0.00000863
Si      11.60572729       4.46704652      27.24360538       0.00002601      -0.00005530      -0.00004874
Si       0.00000000       4.46704652       1.18450458       0.00002811       0.00000034      -0.00001789
Si       1.93428788       1.11676163      27.24360538      -0.00000416      -0.00000429       0.00005228
Si       1.93428788       1.11676163       1.18450458       0.00003190       0.00001938      -0.00002601
Si       1.93428788       3.35028489      20.92624761       0.00002339      -0.00001001      -0.00007306
Si       1.93428788       3.35028489      23.29525678       0.00004823      -0.00003404      -0.00001001
Si       1.93428788       5.58380815      24.08492650       0.00001989      -0.00002592      -0.00004390
Si       1.93428788       5.58380815      26.45393566       0.00000971       0.00004623      -0.00005829
Si       3.86857576      13.40113956      20.92624761       0.00001072       0.00003552      -0.00001898
Si       3.86857576      13.40113956      23.29525678      -0.00002727      -0.00000168       0.00004140
Si       3.86857576       2.23352326      24.08492650       0.00004870       0.00002423      -0.00001127
Si       3.86857576       2.23352326      26.45393566       0.00003586      -0.00005856      -0.00003820
Si       3.86857576       4.46704652      27.24360538       0.00002956       0.00000087       0.00005210
Si       3.86857576       4.46704652       1.18450458       0.00013339       0.00006051      -0.00006717
Si       5.80286365       1.11676163      27.24360538      -0.00000881       0.00005546       0.00000030
Si       5.80286365       1.11676163       1.18450458       0.00004333       0.00000337       0.00005376
Si       5.80286365       3.35028489      20.92624761      -0.00001751       0.00003347      -0.00006926
Si       5.80286365       3.35028489      23.29525678      -0.00001593      -0.00008197       0.00004481
Si       5.80286365       5.58380815      24.08492650       0.00000619       0.00018332      -0.00003002
P        5.80286365       5.58380815      26.45393566      -0.00001317       0.00002463      -0.00002489
Si       7.73715153      13.40113956      20.92624761      -0.00005737       0.00002536      -0.00000653
Si       7.73715153      13.40113956      23.29525678       0.00007074      -0.00006378       0.00005322
Si       7.73715153       2.23352326      24.08492650      -0.00008016       0.00001031      -0.00001613
Si       7.73715153       2.23352326      26.45393566      -0.00002973      -0.00012395      -0.00000392
Si       7.73715153       4.46704652      27.24360538       0.00007205       0.00008451       0.00003157
Si       7.73715153       4.46704652       1.18450458      -0.00010094       0.00005240      -0.00006819
Si       9.67143941       1.11676163      27.24360538       0.00000000      -0.00000223       0.00003182
Si       9.67143941       1.11676163       1.18450458      -0.00006540       0.00001314       0.00000598
Si       9.67143941       3.35028489      20.92624761      -0.00003754       0.00002397      -0.00011696
Si       9.67143941       3.35028489      23.29525678       0.00004134      -0.00001873      -0.00003712
Si       9.67143941       5.58380815      24.08492650      -0.00000591       0.00001715       0.00000541
Si       9.67143941       5.58380815      26.45393566      -0.00000239       0.00003582      -0.00004800
Si      11.60572729       6.70056978      20.92624761       0.00000187      -0.00002792      -0.00007812
Si      11.60572729       6.70056978      23.29525678      -0.00000111      -0.00000403      -0.00004851
Si      11.60572729       8.93409304      24.08492650      -0.00002290       0.00000485      -0.00002270
Si      11.60572729       8.93409304      26.45393566       0.00001961       0.00011473      -0.00010894
Si      11.60572729      11.16761630      27.24360538      -0.00000984      -0.00003748      -0.00000338
Si       0.00000000      11.16761630       1.18450458       0.00001954      -0.00003753      -0.00001067
Si       1.93428788       7.81733141      27.24360538       0.00002457      -0.00008834       0.00005048
Si       1.93428788       7.81733141       1.18450458       0.00002248       0.00003666      -0.00005142
Si       1.93428788      10.05085467      20.92624761      -0.00004157       0.00002699      -0.00003099
Si       1.93428788      10.05085467      23.29525678      -0.00003197       0.00005029      -0.00005941
Si       1.93428788      12.28437793      24.08492650      -0.00004955       0.00000441      -0.00001985
Si       1.93428788      12.28437793      26.45393566      -0.00003556       0.00005652      -0.00004718
Si       3.86857576       6.70056978      20.92624761      -0.00000395       0.00002782       0.00000948
Si       3.86857576       6.70056978      23.29525678      -0.00000379       0.00000088       0.00001750
Si       3.86857576       8.93409304      24.08492650       0.00004817      -0.00004649      -0.00004514
P        3.86857576       8.93409304      26.45393566      -0.00001299       0.00007016      -0.00007932
Si       3.86857576      11.16761630      27.24360538       0.00003061       0.00000880       0.00002976
Si       3.86857576      11.16761630       1.18450458       0.00004073      -0.00007766      -0.00006122
P        5.80286365       7.81733141      27.24360538       0.00000959       0.00001344      -0.00004488
P        5.80286365       7.81733141       1.18450458       0.00003231      -0.00007342       0.00000228
Si       5.80286365      10.05085467      20.92624761      -0.00001508       0.00005378       0.00001937
Si       5.80286365      10.05085467      23.29525678       0.00000399      -0.00000829       0.00008426
Si       5.80286365      12.28437793      24.08492650       0.00002941       0.00006825      -0.00003257
Si       5.80286365      12.28437793      26.45393566      -0.00002890      -0.00009748       0.00003756
Si       7.73715153       6.70056978      20.92624761       0.00000685       0.00004486      -0.00007097
Si       7.73715153       6.70056978      23.29525678       0.00003188      -0.00005851       0.00009320
Si       7.73715153       8.93409304      24.08492650      -0.00005572      -0.00001162      -0.00005911
P        7.73715153       8.93409304      26.45393566      -0.00003836      -0.00000751      -0.00001289
Si       7.73715153      11.16761630      27.24360538      -0.00005746      -0.00000013       0.00001386
Si       7.73715153      11.16761630       1.18450458      -0.00002985      -0.00015028      -0.00000671
Si       9.67143941       7.81733141      27.24360538      -0.00006568      -0.00009180       0.00003981
Si       9.67143941       7.81733141       1.18450458      -0.00004800       0.00001419      -0.00003695
Si       9.67143941      10.05085467      20.92624761      -0.00000477      -0.00001216      -0.00004850
Si       9.67143941      10.05085467      23.29525678       0.00000403       0.00006597       0.00000005
Si       9.67143941      12.28437793      24.08492650      -0.00001907      -0.00000634      -0.00002396
Si       9.67143941      12.28437793      26.45393566       0.00004360       0.00001873      -0.00007287
Si      11.60572729      13.40113956       1.97417430       0.00000029       0.00001845      -0.00003208
Si      11.60572729      13.40113956       4.34318347      -0.00000232       0.00002933      -0.00003489
Si      11.60572729       2.23352326       5.13285319      -0.00005138      -0.00000144       0.00003334
Si      11.60572729       2.23352326       7.50186235       0.00001729       0.00002384       0.00002164
Si      11.60572729       4.46704652       8.29153207      -0.00003659       0.00000812       0.00001233
Si       0.00000000       4.46704652      10.66054124      -0.00001339      -0.00002047       0.00002760
Si       1.93428788       1.11676163       8.29153207      -0.00007189      -0.00001158       0.00001275
Si       1.93428788       1.11676163      10.66054124       0.00007410      -0.00003598      -0.00003977
Si       1.93428788       3.35028489       1.97417430      -0.00003798      -0.00003176      -0.00002655
Si       1.93428788       3.35028489       4.34318347       0.00000534       0.00002559      -0.00000938
Si       1.93428788       5.58380815       5.13285319       0.00001029       0.00004373       0.00001591
Si       1.93428788       5.58380815       7.50186235       0.00003034      -0.00001027       0.00005165
Si       3.86857576      13.40113956       1.97417430      -0.00008113       0.00005153      -0.00009414
Si       3.86857576      13.40113956       4.34318347       0.00000459      -0.00001525       0.00003516
Si       3.86857576       2.23352326       5.13285319      -0.00002695       0.00004476      -0.00002304
Si       3.86857576       2.23352326       7.50186235       0.00000987      -0.00000953      -0.00001899
Si       3.86857576       4.46704652       8.29153207       0.00003959       0.00000560      -0.00000743
Si       3.86857576       4.46704652      10.66054124       0.00007290      -0.00003964      -0.00000218
Si       5.80286365       1.11676163       8.29153207      -0.00003982      -0.00000116      -0.00000009
Si       5.80286365       1.11676163      10.66054124       0.00001506       0.00002515       0.00001072
Si       5.80286365       3.35028489       1.97417430      -0.00002123       0.00000758      -0.00008123
Si       5.80286365       3.35028489       4.34318347       0.00001981      -0.00007898      -0.00000045
Si       5.80286365       5.58380815       5.13285319       0.00001537       0.00002440       0.00000097
Si       5.80286365       5.58380815       7.50186235       0.00001597      -0.00007441      -0.00003544
Si       7.73715153      13.40113956       1.97417430       0.00003487       0.00008093      -0.00006326
Si       7.73715153      13.40113956       4.34318347      -0.00006216       0.00001937       0.00000896
Si       7.73715153       2.23352326       5.13285319      -0.00002864       0.00003807      -0.00002112
Si       7.73715153       2.23352326       7.50186235      -0.00001195      -0.00002473      -0.00001009
Si       7.73715153       4.46704652       8.29153207      -0.00008723      -0.00001807      -0.00000484
Si       7.73715153       4.46704652      10.66054124      -0.00004930      -0.00004770       0.00002096
Si       9.67143941       1.11676163       8.29153207       0.00000631       0.00000828       0.00003100
Si       9.67143941       1.11676163      10.66054124      -0.00003038      -0.00000901      -0.00001074
Si       9.67143941       3.35028489       1.97417430       0.00007665      -0.00005415      -0.00000316
Si       9.67143941       3.35028489       4.34318347      -0.00003289       0.00001585      -0.00000126
Si       9.67143941       5.58380815       5.13285319      -0.00004901       0.00004387       0.00004644
Si       9.67143941       5.58380815       7.50186235      -0.00002226      -0.00000550       0.00005130
Si      11.60572729       6.70056978       1.97417430       0.00005280      -0.00003076       0.00003840
Si      11.60572729       6.70056978       4.34318347      -0.00000110       0.00001852      -0.00001326
Si      11.60572729       8.93409304       5.13285319      -0.00002515       0.00005156       0.00000541
Si      11.60572729       8.93409304       7.50186235       0.00000095       0.00005718       0.00007190
Si      11.60572729      11.16761630       8.29153207       0.00001071       0.00002905      -0.00003369
Si       0.00000000      11.16761630      10.66054124       0.00004800      -0.00003132      -0.00000403
Si       1.93428788       7.81733141       8.29153207       0.00003068       0.00006310      -0.00007141
Si       1.93428788       7.81733141      10.66054124       0.00005655       0.00001344       0.00002922
Si       1.93428788      10.05085467       1.97417430      -0.00002273      -0.00003265      -0.00002225
Si       1.93428788      10.05085467       4.34318347      -0.00000651      -0.00001041       0.00001408
Si       1.93428788      12.28437793       5.13285319      -0.00003836      -0.00000403       0.00001861
Si       1.93428788      12.28437793       7.50186235       0.00001099       0.00001348      -0.00004195
P        3.86857576       6.70056978       1.97417430       0.00002370      -0.00004520      -0.00002328
Si       3.86857576       6.70056978       4.34318347       0.00004852      -0.00000271       0.00004606
Si       3.86857576       8.93409304       5.13285319      -0.00001916      -0.00000834      -0.00002834
Si       3.86857576       8.93409304       7.50186235       0.00007082      -0.00004608       0.00000076
Si       3.86857576      11.16761630       8.29153207      -0.00010281      -0.00000432      -0.00009249
Si       3.86857576      11.16761630      10.66054124       0.00005722      -0.00001004       0.00001215
Si       5.80286365       7.81733141       8.29153207      -0.00000360       0.00001672      -0.00002972
Si       5.80286365       7.81733141      10.66054124       0.00001913      -0.00003047      -0.00001410
P        5.80286365      10.05085467       1.97417430       0.00003031       0.00004133      -0.00004523
Si       5.80286365      10.05085467       4.34318347       0.00000258      -0.00009074       0.00012234
Si       5.80286365      12.28437793       5.13285319      -0.00002620       0.00003175      -0.00002936
Si       5.80286365      12.28437793       7.50186235       0.00002829      -0.00004383      -0.00000438
P        7.73715153       6.70056978       1.97417430      -0.00000710       0.00002088      -0.00007127
Si       7.73715153       6.70056978       4.34318347      -0.00001605      -0.00003407       0.00013169
Si       7.73715153       8.93409304       5.13285319      -0.00000546       0.00000801      -0.00001591
Si       7.73715153       8.93409304       7.50186235      -0.00000894      -0.00005140       0.00002797
Si       7.73715153      11.16761630       8.29153207       0.00001263      -0.00001427      -0.00005468
Si       7.73715153      11.16761630      10.66054124      -0.00000318      -0.00000622      -0.00000630
Si       9.67143941       7.81733141       8.29153207      -0.00002255       0.00006770      -0.00005132
Si       9.67143941       7.81733141      10.66054124      -0.00003181       0.00000025       0.00000647
Si       9.67143941      10.05085467       1.97417430      -0.00000933      -0.00001888      -0.00003224
Si       9.67143941      10.05085467       4.34318347       0.00003148      -0.00001873       0.00004477
Si       9.67143941      12.28437793       5.13285319      -0.00001368       0.00001721      -0.00001217
Si       9.67143941      12.28437793       7.50186235       0.00001770      -0.00000192      -0.00000607
Si      11.60572729      13.40113956      11.45021096      -0.00000143       0.00002531      -0.00001574
Si      11.60572729      13.40113956      13.81922012       0.00001411      -0.00003363       0.00002627
Si      11.60572729       2.23352326      14.60888984      -0.00003241       0.00005258       0.00007155
Si      11.60572729       2.23352326      16.97789901       0.00002213      -0.00001836       0.00006527
Si      11.60572729       4.46704652      17.76756873      -0.00002574      -0.00002273      -0.00005852
Si       0.00000000       4.46704652      20.13657789       0.00000899       0.00002568      -0.00005215
Si       1.93428788       1.11676163      17.76756873       0.00000822       0.00000619       0.00001896
Si       1.93428788       1.11676163      20.13657789       0.00006651      -0.00001852      -0.00005897
Si       1.93428788       3.35028489      11.45021096       0.00003338      -0.00001872       0.00004498
Si       1.93428788       3.35028489      13.81922012       0.00004478      -0.00005136       0.00005561
Si       1.93428788       5.58380815      14.60888984      -0.00002440      -0.00001092      -0.00000379
Si       1.93428788       5.58380815      16.97789901      -0.00000729      -0.00002327       0.00009942
Si       3.86857576      13.40113956      11.45021096      -0.00000306       0.00002187       0.00001629
Si       3.86857576      13.40113956      13.81922012       0.00002825       0.00002969       0.00002343
Si       3.86857576       2.23352326      14.60888984       0.00001019       0.00001303       0.00004122
Si       3.86857576       2.23352326      16.97789901       0.00000154      -0.00004628       0.00003462
Si       3.86857576       4.46704652      17.76756873       0.00001190      -0.00000286       0.00001265
Si       3.86857576       4.46704652      20.13657789       0.00000202       0.00000513       0.00004331
Si       5.80286365       1.11676163      17.76756873      -0.00001248      -0.00002614       0.00000733
Si       5.80286365       1.11676163      20.13657789       0.00003665      -0.00005313      -0.00000196
Si       5.80286365       3.35028489      11.45021096      -0.00001887       0.00000977      -0.00006054
Si       5.80286365       3.35028489      13.81922012       0.00001552       0.00003825       0.00003090
Si       5.80286365       5.58380815      14.60888984      -0.00003314       0.00001121      -0.00003858
Si       5.80286365       5.58380815      16.97789901       0.00000697       0.00000818       0.00000201
Si       7.73715153      13.40113956      11.45021096      -0.00003137       0.00001572       0.00002868
Si       7.73715153      13.40113956      13.81922012       0.00001876       0.00004302       0.00004078
Si       7.73715153       2.23352326      14.60888984      -0.00000623       0.00000427       0.00001924
Si       7.73715153       2.23352326      16.97789901       0.00008326      -0.00007278       0.00002901
Si       7.73715153       4.46704652      17.76756873      -0.00000449       0.00001953       0.00001919
Si       7.73715153       4.46704652      20.13657789       0.00002328       0.00000355       0.00005033
Si       9.67143941       1.11676163      17.76756873      -0.00003223      -0.00001193       0.00000980
Si       9.67143941       1.11676163      20.13657789       0.00000268      -0.00001056      -0.00006757
Si       9.67143941       3.35028489      11.45021096      -0.00007506       0.00000075       0.00003284
Si       9.67143941       3.35028489      13.81922012      -0.00002617      -0.00002794       0.00003947
Si       9.67143941       5.58380815      14.60888984      -0.00000641      -0.00002257       0.00001282
Si       9.67143941       5.58380815      16.97789901       0.00006286      -0.00002424       0.00006396
Si      11.60572729       6.70056978      11.45021096      -0.00003389       0.00002862       0.00001904
Si      11.60572729       6.70056978      13.81922012      -0.00001789       0.00000024       0.00000367
Si      11.60572729       8.93409304      14.60888984      -0.00001906      -0.00006749       0.00003798
Si      11.60572729       8.93409304      16.97789901      -0.00000959       0.00000596       0.00004269
Si      11.60572729      11.16761630      17.76756873      -0.00000833       0.00003456       0.00006223
Si       0.00000000      11.16761630      20.13657789      -0.00000039       0.00003195      -0.00000890
Si       1.93428788       7.81733141      17.76756873      -0.00001462       0.00000429       0.00000208
Si       1.93428788       7.81733141      20.13657789       0.00004861      -0.00003956       0.00004667
Si       1.93428788      10.05085467      11.45021096       0.00002170       0.00002641      -0.00003997
Si       1.93428788      10.05085467      13.81922012       0.00001312      -0.00000051      -0.00000482
Si       1.93428788      12.28437793      14.60888984       0.00007501       0.00003011       0.00009053
Si       1.93428788      12.28437793      16.97789901       0.00003042       0.00004889       0.00003518
Si       3.86857576       6.70056978      11.45021096       0.00010404      -0.00001266      -0.00000641
Si       3.86857576       6.70056978      13.81922012       0.00006928      -0.00002550       0.00007726
Si       3.86857576       8.93409304      14.60888984       0.00005855       0.00000386      -0.00003801
Si       3.86857576       8.93409304      16.97789901       0.00005485      -0.00000996       0.00005105
Si       3.86857576      11.16761630      17.76756873       0.00001406       0.00007866       0.00006407
Si       3.86857576      11.16761630      20.13657789       0.00009430       0.00000391       0.00003787
Si       5.80286365       7.81733141      17.76756873       0.00001468       0.00005853       0.00004383
Si       5.80286365       7.81733141      20.13657789       0.00003417      -0.00005680      -0.00000591
Si       5.80286365      10.05085467      11.45021096       0.00001475      -0.00008521       0.00005722
Si       5.80286365      10.05085467      13.81922012       0.00004141      -0.00000073       0.00012185
Si       5.80286365      12.28437793      14.60888984       0.00002864       0.00004328       0.00000239
Si       5.80286365      12.28437793      16.97789901       0.00005294      -0.00001465       0.00005129
Si       7.73715153       6.70056978      11.45021096      -0.00008982      -0.00001234      -0.00003292
Si       7.73715153       6.70056978      13.81922012      -0.00005112       0.00000203       0.00009526
Si       7.73715153       8.93409304      14.60888984      -0.00009079       0.00003182      -0.00002658
Si       7.73715153       8.93409304      16.97789901      -0.00005117       0.00000143       0.00001231
Si       7.73715153      11.16761630      17.76756873      -0.00005586       0.00004692       0.00005480
Si       7.73715153      11.16761630      20.13657789      -0.00006643      -0.00000558      -0.00000615
Si       9.67143941       7.81733141      17.76756873      -0.00006256       0.00000236       0.00001490
Si       9.67143941       7.81733141      20.13657789      -0.00003592      -0.00007289       0.00001982
Si       9.67143941      10.05085467      11.45021096      -0.00003251       0.00000600      -0.00004044
Si       9.67143941      10.05085467      13.81922012      -0.00004289      -0.00001573       0.00004218
Si       9.67143941      12.28437793      14.60888984      -0.00011519       0.00005208       0.00005031
Si       9.67143941      12.28437793      16.97789901      -0.00000981       0.00002339       0.00003727
