216
Lattice="11.605727294873521 0.0 0.0 0.0 13.401139555673227 0.0 0.0 0.0 28.428109966331448" Properties=species:S:1:pos:R:3:forces:R:3:energies:R:1 energy=-1163.5300644728968 stress="0.0018936316058347686 -8.82309474819295e-18 3.205095357563706e-19 -8.82309474819295e-18 0.0019063121172549664 7.003696361485433e-08 3.205095357563706e-19 7.003696361485433e-08 0.0019240301557161398" free_energy=-1163.5300644728968 pbc="T T T"
Si      11.60572729      13.39711718      20.94010700       0.00000000       0.00001420       0.00004690      -5.38490417
Si       0.00000000      13.39162776      23.31075698      -0.00000000      -0.00014598      -0.00003272      -5.38079084
Si       0.00000000       2.22983383      24.09142498       0.00000000      -0.00003134       0.00005365      -5.38392903
Si       0.00000000       2.22624407      26.45883787       0.00000000      -0.00003270      -0.00001559      -5.38437242
Si       0.00000000       4.46654647      27.24208109      -0.00000000      -0.00010828       0.00009493      -5.38223298
Si      11.60572729       4.46798411       1.17842713      -0.00000000       0.00004402       0.00007025      -5.39868238
Si       1.94494517       1.11343248      27.24226279       0.00003550      -0.00003695      -0.00004863      -5.37926531
Si       1.93586195       1.11639702       1.18085797       0.00012635      -0.00001187      -0.00001183      -5.38700929
Si       1.93430472       3.35075062      20.93497274      -0.00002470      -0.00006222       0.00010833      -5.38352057
Si       1.93473083       3.35250185      23.30458467       0.00005709       0.00000521      -0.00000105      -5.38149327
Si       1.94010931       5.58782263      24.09562080      -0.00003859      -0.00006902       0.00007475      -5.37845174
Si       1.94160609       5.58902137      26.46290373       0.00002942       0.00004840       0.00002760      -5.38718090
Si       3.86903208       0.00150469      20.93989472      -0.00004561       0.00000847       0.00005745      -5.38451346
Si       3.87027106       0.00337907      23.31052632       0.00000849       0.00003591      -0.00013537      -5.37990697
Si       3.87133021       2.24423247      24.09663330      -0.00002094      -0.00001794       0.00003043      -5.38574313
Si       3.87784397       2.26442080      26.46323795       0.00007629       0.00001588      -0.00005203      -5.37115384
Si       3.89997159       4.52370221      27.24208292       0.00003762       0.00002282       0.00000361      -5.35307769
Si       3.86963392       4.47821684       1.17225781       0.00002930      -0.00001377       0.00007128      -5.38677471
Si       5.80286365       1.12595881      27.24528892       0.00000000       0.00003562       0.00002310      -5.38514605
Si       5.80286365       1.11965105       1.18094301      -0.00000000      -0.00001025       0.00000028      -5.38969256
Si       5.80286365       3.35825589      20.94606448       0.00000000      -0.00005252       0.00011741      -5.38205933
Si       5.80286365       3.37848217      23.32442061       0.00000000       0.00007122      -0.00006225      -5.36968208
Si       5.80286365       5.62274087      24.14268849      -0.00000000      -0.00000600       0.00005992      -5.35471390
Si       5.80286365       5.79882135      26.53121392      -0.00000000      -0.00009447      -0.00002836      -5.40018569
Si       7.73669521       0.00150469      20.93989472       0.00004561       0.00000847       0.00005745      -5.38451346
Si       7.73545624       0.00337907      23.31052632      -0.00000849       0.00003591      -0.00013537      -5.37990697
Si       7.73439708       2.24423247      24.09663330       0.00002094      -0.00001794       0.00003043      -5.38574313
Si       7.72788333       2.26442080      26.46323795      -0.00007629       0.00001588      -0.00005203      -5.37115384
Si       7.70575570       4.52370221      27.24208292      -0.00003762       0.00002282       0.00000361      -5.35307769
Si       7.73609337       4.47821684       1.17225781      -0.00002930      -0.00001377       0.00007128      -5.38677471
Si       9.66078212       1.11343248      27.24226279      -0.00003550      -0.00003695      -0.00004863      -5.37926531
Si       9.66986535       1.11639702       1.18085797      -0.00012635      -0.00001187      -0.00001183      -5.38700929
Si       9.67142257       3.35075062      20.93497274       0.00002470      -0.00006222       0.00010833      -5.38352057
Si       9.67099647       3.35250185      23.30458467      -0.00005709       0.00000521      -0.00000105      -5.38149327
Si       9.66561798       5.58782263      24.09562080       0.00003859      -0.00006902       0.00007475      -5.37845174
Si       9.66412120       5.58902137      26.46290373      -0.00002942       0.00004840       0.00002760      -5.38718090
Si       0.00000000       6.70014462      20.93641255       0.00000000       0.00000136       0.00013377      -5.38297325
Si       0.00000000       6.69947126      23.30656768      -0.00000000       0.00004198      -0.00005122      -5.38066112
Si       0.00000000       8.92744099      24.10309505       0.00000000       0.00009102       0.00008415      -5.38780645
Si       0.00000000       8.91912167      26.46860586       0.00000000      -0.00011336      -0.00001793      -5.35721450
Si       0.00000000      11.15715859      27.24586490       0.00000000       0.00010061       0.00003807      -5.38637256
Si       0.00000000      11.16319493       1.18089038      -0.00000000      -0.00004786       0.00004865      -5.38191258
Si       1.98659434       7.81839249      27.24165148       0.00004611       0.00001286      -0.00002233      -5.34972560
Si       1.94226538       7.81267589       1.17186422      -0.00006853      -0.00001944       0.00005909      -5.38752802
Si       1.93860276      10.04619535      20.95064457      -0.00001664       0.00005076       0.00007069      -5.38255377
Si       1.95165726      10.03469328      23.32999910      -0.00003057      -0.00003522      -0.00006193      -5.36871652
Si       1.94084284      12.27582580      24.09987410       0.00002723       0.00002310       0.00003159      -5.38821280
Si       1.95315369      12.26048183      26.46607288       0.00004752      -0.00002004      -0.00006913      -5.36859983
Si       3.87024310       6.70202905      20.93847725       0.00001039       0.00001451       0.00005390      -5.38392274
Si       3.87656662       6.70653418      23.31123716       0.00000985      -0.00004695      -0.00005914      -5.38552632
Si       3.89914146       8.91592175      24.14499581       0.00005445       0.00004022       0.00000777      -5.35582233
Si       4.04925521       8.82748936      26.53335006      -0.00012634       0.00000111      -0.00004011      -5.39778641
Si       3.89988390      11.11360029      27.24390237       0.00001882       0.00001846      -0.00002824      -5.35482696
Si       3.87698258      11.16133097       1.17386234       0.00003256       0.00001628      -0.00006066      -5.38626938
B        5.80286365       7.81866274      27.24275101       0.00000000      -0.00001622       0.00004622      -6.50763609
Si       5.80286365       7.81799185       0.95279847      -0.00000000       0.00001121       0.00013085      -5.40250551
Si       5.80286365      10.04986422      20.94143264      -0.00000000       0.00001770       0.00001202      -5.38450692
Si       5.80286365      10.04265521      23.31458255       0.00000000       0.00006982      -0.00013232      -5.38470819
Si       5.80286365      12.28007865      24.09974605       0.00000000       0.00001039      -0.00006605      -5.38130950
Si       5.80286365      12.28010271      26.46670665      -0.00000000       0.00008913      -0.00011351      -5.38396728
Si       7.73548420       6.70202905      20.93847725      -0.00001039       0.00001451       0.00005390      -5.38392274
Si       7.72916068       6.70653418      23.31123716      -0.00000985      -0.00004695      -0.00005914      -5.38552632
Si       7.70658583       8.91592175      24.14499581      -0.00005445       0.00004022       0.00000777      -5.35582233
Si       7.55647208       8.82748936      26.53335006       0.00012634       0.00000111      -0.00004011      -5.39778641
Si       7.70584339      11.11360029      27.24390237      -0.00001882       0.00001846      -0.00002824      -5.35482696
Si       7.72874471      11.16133097       1.17386234      -0.00003256       0.00001628      -0.00006066      -5.38626938
Si       9.61913296       7.81839249      27.24165148      -0.00004611       0.00001286      -0.00002233      -5.34972560
Si       9.66346191       7.81267589       1.17186422       0.00006853      -0.00001944       0.00005909      -5.38752802
Si       9.66712453      10.04619535      20.95064457       0.00001664       0.00005076       0.00007069      -5.38255377
Si       9.65407003      10.03469328      23.32999910       0.00003057      -0.00003522      -0.00006193      -5.36871652
Si       9.66488446      12.27582580      24.09987410      -0.00002723       0.00002310       0.00003159      -5.38821280
Si       9.65257361      12.26048183      26.46607288      -0.00004752      -0.00002004      -0.00006913      -5.36859983
Si       0.00000000      13.39940830       1.96777452       0.00000000      -0.00003124      -0.00002418      -5.38165813
Si       0.00000000      13.40113870       4.33636218       0.00000000       0.00002823       0.00004145      -5.38379186
Si       0.00000000       2.23534088       5.12447296      -0.00000000      -0.00004637      -0.00008088      -5.38238186
Si       0.00000000       2.23475814       7.49438007       0.00000000      -0.00004487       0.00003679      -5.38437501
Si       0.00000000       4.47016300       8.28039831      -0.00000000      -0.00007032      -0.00010489      -5.38242197
Si       0.00000000       4.46829544      10.65304918       0.00000000      -0.00002333       0.00006086      -5.38340443
Si       1.93441765       1.11692230       8.28572322      -0.00007563       0.00004075      -0.00014224      -5.38305650
Si       1.93438892       1.11675095      10.65680007      -0.00005032       0.00001550      -0.00005956      -5.38386987
Si       1.93568182       3.35333696       1.96448390      -0.00005772      -0.00000084      -0.00003950      -5.38245660
Si       1.93527452       3.35161594       4.33322839       0.00010795      -0.00000765       0.00005364      -5.38567122
Si       1.94111398       5.58916781       5.11241960       0.00003624      -0.00003717      -0.00004622      -5.38077585
Si       1.93639969       5.58588407       7.48625519       0.00000889      -0.00008017       0.00002619      -5.38320387
Si       3.87082002      13.39833966       1.96674037       0.00006226       0.00006124      -0.00006719      -5.38250475
Si       3.86947869      13.39943046       4.33467618       0.00006760       0.00004381       0.00002276      -5.38522992
Si       3.86962595       2.23307166       5.12352401       0.00001250       0.00001091      -0.00009712      -5.38226760
Si       3.86914538       2.23306470       7.49346939      -0.00002497       0.00003277       0.00001002      -5.38433607
Si       3.86960026       4.46825203       8.28065006      -0.00006981      -0.00004838      -0.00006614      -5.38360165
Si       3.86897143       4.46749434      10.65305314      -0.00001809       0.00001806       0.00006897      -5.38349300
Si       5.80286365       1.11396197       8.28358207       0.00000000       0.00003657      -0.00008376      -5.38267986
Si       5.80286365       1.11559847      10.65542611      -0.00000000       0.00008409       0.00003613      -5.38369728
Si       5.80286365       3.35799883       1.96129011       0.00000000      -0.00006214      -0.00000126      -5.37775087
Si       5.80286365       3.35170695       4.33083526      -0.00000000      -0.00007980       0.00011448      -5.38319438
Si       5.80286365       5.58744159       5.10953566       0.00000000       0.00000086      -0.00007710      -5.38503062
Si       5.80286365       5.58509305       7.48370690       0.00000000       0.00000945       0.00011786      -5.38265536
Si       7.73490727      13.39833966       1.96674037      -0.00006226       0.00006124      -0.00006719      -5.38250475
Si       7.73624860      13.39943046       4.33467618      -0.00006760       0.00004381       0.00002276      -5.38522992
Si       7.73610134       2.23307166       5.12352401      -0.00001250       0.00001091      -0.00009712      -5.38226760
Si       7.73658192       2.23306470       7.49346939       0.00002497       0.00003277       0.00001002      -5.38433607
Si       7.73612703       4.46825203       8.28065006       0.00006981      -0.00004838      -0.00006614      -5.38360165
Si       7.73675586       4.46749434      10.65305314       0.00001809       0.00001806       0.00006897      -5.38349300
Si       9.67130965       1.11692230       8.28572322       0.00007563       0.00004075      -0.00014224      -5.38305650
Si       9.67133837       1.11675095      10.65680007       0.00005032       0.00001550      -0.00005956      -5.38386987
Si       9.67004548       3.35333696       1.96448390       0.00005772      -0.00000084      -0.00003950      -5.38245660
Si       9.67045278       3.35161594       4.33322839      -0.00010795      -0.00000765       0.00005364      -5.38567122
Si       9.66461331       5.58916781       5.11241960      -0.00003624      -0.00003717      -0.00004622      -5.38077585
Si       9.66932760       5.58588407       7.48625519      -0.00000889      -0.00008017       0.00002619      -5.38320387
Si       0.00000000       6.70149025       1.96231833      -0.00000000      -0.00018087      -0.00001784      -5.38269373
Si       0.00000000       6.70150840       4.33052915       0.00000000       0.00002652       0.00006994      -5.38654583
Si       0.00000000       8.93480883       5.12213698      -0.00000000       0.00001561      -0.00003005      -5.38227570
Si       0.00000000       8.93463140       7.49226665      -0.00000000      -0.00000671       0.00003337      -5.38388174
Si       0.00000000      11.16749051       8.28609557      -0.00000000      -0.00001281      -0.00009735      -5.38322578
Si      11.60572729      11.16750005      10.65705182       0.00000000      -0.00001216       0.00003247      -5.38377152
Si       1.93563980       7.81813119       8.28082352      -0.00003376      -0.00002182      -0.00002338      -5.38382153
Si       1.93478577       7.81773901      10.65323104      -0.00001905      -0.00004938       0.00016290      -5.38336834
Si       1.94040971      10.04635015       1.96186272      -0.00009787       0.00012382      -0.00003163      -5.37752625
Si       1.93551926      10.04998849       4.33114925      -0.00003989      -0.00004570       0.00007593      -5.38247706
Si       1.93462679      12.28328172       5.12476124      -0.00001786       0.00004759      -0.00009037      -5.38242423
Si       1.93444505      12.28386665       7.49469407      -0.00003869       0.00006056       0.00004743      -5.38386119
Si       3.90026010       6.71994964       1.91291936       0.00005286      -0.00000087       0.00000087      -5.35328952
Si       3.87823181       6.70659665       4.30013815       0.00000565       0.00000871       0.00010763      -5.37118247
Si       3.87135670       8.93217477       5.11029986      -0.00002358      -0.00000757      -0.00004712      -5.38509502
Si       3.86973259       8.93328167       7.48438851       0.00000835      -0.00002262       0.00004420      -5.38248623
Si       3.86903410      11.16543590       8.28235946      -0.00003427       0.00002824      -0.00006572      -5.38371119
Si       3.86877961      11.16676796      10.65466258      -0.00005085       0.00001312       0.00003010      -5.38341849
Si       5.80286365       7.81712880       8.27853402      -0.00000000       0.00004335       0.00004010      -5.38505329
Si       5.80286365       7.81735697      10.65161564      -0.00000000      -0.00005100       0.00008959      -5.38313014
Si       5.80286365      10.01346689       1.91476545       0.00000000      -0.00001920      -0.00007314      -5.35359537
Si       5.80286365      10.03886595       4.30153345      -0.00000000       0.00003262       0.00000223      -5.37103728
Si       5.80286365      12.27435217       5.11484992      -0.00000000       0.00001995      -0.00010239      -5.38090485
Si       5.80286365      12.28068908       7.48844445       0.00000000       0.00006112      -0.00006645      -5.38296685
Si       7.70546719       6.71994964       1.91291936      -0.00005286      -0.00000087       0.00000087      -5.35328952
Si       7.72749548       6.70659665       4.30013815      -0.00000565       0.00000871       0.00010763      -5.37118247
Si       7.73437059       8.93217477       5.11029986       0.00002358      -0.00000757      -0.00004712      -5.38509502
Si       7.73599471       8.93328167       7.48438851      -0.00000835      -0.00002262       0.00004420      -5.38248623
Si       7.73669320      11.16543590       8.28235946       0.00003427       0.00002824      -0.00006572      -5.38371119
Si       7.73694769      11.16676796      10.65466258       0.00005085       0.00001312       0.00003010      -5.38341849
Si       9.67008750       7.81813119       8.28082352       0.00003376      -0.00002182      -0.00002338      -5.38382153
Si       9.67094152       7.81773901      10.65323104       0.00001905      -0.00004938       0.00016290      -5.38336834
Si       9.66531758      10.04635015       1.96186272       0.00009787       0.00012382      -0.00003163      -5.37752625
Si       9.67020804      10.04998849       4.33114925       0.00003989      -0.00004570       0.00007593      -5.38247706
Si       9.67110051      12.28328172       5.12476124       0.00001786       0.00004759      -0.00009037      -5.38242423
Si       9.67128224      12.28386665       7.49469407       0.00003869       0.00006056       0.00004743      -5.38386119
Si       0.00000000      13.40111689      11.44912967       0.00000000      -0.00001214      -0.00012692      -5.38331628
Si       0.00000000      13.40076675      13.82074707       0.00000000       0.00002078      -0.00007055      -5.38373798
Si       0.00000000       2.23372895      14.61109471       0.00000000      -0.00002299       0.00005761      -5.38357093
Si       0.00000000       2.23326982      16.98276032       0.00000000      -0.00002887      -0.00002904      -5.38331781
Si       0.00000000       4.46739854      17.77333337      -0.00000000      -0.00002976       0.00011292      -5.38362164
Si       0.00000000       4.46718487      20.14394963       0.00000000       0.00010022       0.00001016      -5.38299365
Si       1.93406031       1.11624387      17.77576273      -0.00004972      -0.00002719       0.00009458      -5.38376632
Si       1.93364788       1.11564822      20.14715941       0.00005148      -0.00007075      -0.00006399      -5.38293576
Si       1.93437537       3.35117304      11.44641726      -0.00000970       0.00002380      -0.00007790      -5.38336614
Si       1.93440622       3.35058359      13.81847061      -0.00005473       0.00001643      -0.00001450      -5.38344385
Si       1.93443524       5.58430539      14.61022890       0.00001648       0.00000351       0.00012675      -5.38364670
Si       1.93459450       5.58432588      16.98211304      -0.00003633      -0.00000775      -0.00001342      -5.38324637
Si       3.86862863      13.40024172      11.44823539      -0.00000164      -0.00002442      -0.00012628      -5.38334272
Si       3.86851990      13.40058041      13.82034859      -0.00001636      -0.00002954       0.00001457      -5.38356999
Si       3.86859874       2.23346821      14.61147666      -0.00000311       0.00003672       0.00006440      -5.38350805
Si       3.86859482       2.23353996      16.98356543      -0.00004378      -0.00007811       0.00000018      -5.38344664
Si       3.86894187       4.46746727      17.77455306      -0.00004814      -0.00003383       0.00007003      -5.38356348
Si       3.86900664       4.46898553      20.14572496       0.00004544      -0.00002499       0.00005208      -5.38424658
Si       5.80286365       1.11792845      17.77796122       0.00000000       0.00003666       0.00006038      -5.38339712
Si       5.80286365       1.12181097      20.15084856       0.00000000       0.00003256      -0.00003080      -5.38184845
Si       5.80286365       3.35007428      11.44623665      -0.00000000       0.00000918       0.00000168      -5.38338219
Si       5.80286365       3.35022743      13.81845517      -0.00000000      -0.00003770      -0.00002767      -5.38348558
Si       5.80286365       5.58404984      14.61036783       0.00000000       0.00003810       0.00004647      -5.38367521
Si       5.80286365       5.58447623      16.98227754       0.00000000      -0.00003940       0.00005081      -5.38357266
Si       7.73709866      13.40024172      11.44823539       0.00000164      -0.00002442      -0.00012628      -5.38334272
Si       7.73720739      13.40058041      13.82034859       0.00001636      -0.00002954       0.00001457      -5.38356999
Si       7.73712855       2.23346821      14.61147666       0.00000311       0.00003672       0.00006440      -5.38350805
Si       7.73713247       2.23353996      16.98356543       0.00004378      -0.00007811       0.00000018      -5.38344664
Si       7.73678542       4.46746727      17.77455306       0.00004814      -0.00003383       0.00007003      -5.38356348
Si       7.73672065       4.46898553      20.14572496      -0.00004544      -0.00002499       0.00005208      -5.38424658
Si       9.67166698       1.11624387      17.77576273       0.00004972      -0.00002719       0.00009458      -5.38376632
Si       9.67207941       1.11564822      20.14715941      -0.00005148      -0.00007075      -0.00006399      -5.38293576
Si       9.67135193       3.35117304      11.44641726       0.00000970       0.00002380      -0.00007790      -5.38336614
Si       9.67132107       3.35058359      13.81847061       0.00005473       0.00001643      -0.00001450      -5.38344385
Si       9.67129205       5.58430539      14.61022890      -0.00001648       0.00000351       0.00012675      -5.38364670
Si       9.67113279       5.58432588      16.98211304       0.00003633      -0.00000775      -0.00001342      -5.38324637
Si       0.00000000       6.70148140      11.44574932       0.00000000      -0.00001517      -0.00004710      -5.38359532
Si       0.00000000       6.70108800      13.81801987       0.00000000      -0.00000683       0.00006467      -5.38337960
Si       0.00000000       8.93413568      14.61216189       0.00000000      -0.00001488       0.00010145      -5.38341859
Si       0.00000000       8.93396071      16.98444156       0.00000000       0.00010071      -0.00010260      -5.38397361
Si       0.00000000      11.16567814      17.78110116      -0.00000000       0.00000821       0.00003239      -5.38278270
Si      11.60572729      11.16132395      20.15577709       0.00000000      -0.00006687      -0.00005126      -5.38149236
Si       1.93457344       7.81767995      17.77581752      -0.00005506      -0.00000263       0.00004616      -5.38345988
Si       1.93530030       7.81703485      20.14726528      -0.00001261       0.00001667       0.00004224      -5.38454946
Si       1.93458355      10.05056315      11.44779447      -0.00001235      -0.00002541      -0.00010938      -5.38351439
Si       1.93436539      10.05070618      13.81984277      -0.00002492       0.00000942      -0.00002447      -5.38364879
Si       1.93415360      12.28383387      14.61341761      -0.00000238      -0.00001497       0.00004500      -5.38332410
Si       1.93361238      12.28317589      16.98587238       0.00000653       0.00005688      -0.00008230      -5.38358104
Si       3.86895345       6.70089501      11.44546836      -0.00003033       0.00001692       0.00008580      -5.38383361
Si       3.86877919       6.70095086      13.81774018      -0.00004755       0.00001221       0.00007912      -5.38341862
Si       3.86873574       8.93409650      14.61172884       0.00000525      -0.00001704      -0.00006011      -5.38361746
Si       3.86870529       8.93446440      16.98382313       0.00001167       0.00003439      -0.00009119      -5.38370676
Si       3.86827139      11.16736864      17.77823097      -0.00005310       0.00006837       0.00004338      -5.38362282
Si       3.86852783      11.16711875      20.15024891      -0.00000802       0.00008006      -0.00010876      -5.38383100
Si       5.80286365       7.81775727      17.77608422       0.00000000      -0.00001341       0.00002805      -5.38366210
Si       5.80286365       7.81844808      20.14684496       0.00000000      -0.00007592      -0.00007863      -5.39016278
Si       5.80286365      10.05011635      11.44679963       0.00000000       0.00002956      -0.00005642      -5.38376422
Si       5.80286365      10.05082149      13.81918034      -0.00000000       0.00000934       0.00008718      -5.38347661
Si       5.80286365      12.28408385      14.61322545      -0.00000000      -0.00001381      -0.00002693      -5.38343036
Si       5.80286365      12.28470003      16.98589249      -0.00000000      -0.00002884      -0.00010694      -5.38311671
Si       7.73677384       6.70089501      11.44546836       0.00003033       0.00001692       0.00008580      -5.38383361
Si       7.73694810       6.70095086      13.81774018       0.00004755       0.00001221       0.00007912      -5.38341862
Si       7.73699156       8.93409650      14.61172884      -0.00000525      -0.00001704      -0.00006011      -5.38361746
Si       7.73702200       8.93446440      16.98382313      -0.00001167       0.00003439      -0.00009119      -5.38370676
Si       7.73745591      11.16736864      17.77823097       0.00005310       0.00006837       0.00004338      -5.38362282
Si       7.73719946      11.16711875      20.15024891       0.00000802       0.00008006      -0.00010876      -5.38383100
Si       9.67115386       7.81767995      17.77581752       0.00005506      -0.00000263       0.00004616      -5.38345988
Si       9.67042699       7.81703485      20.14726528       0.00001261       0.00001667       0.00004224      -5.38454946
Si       9.67114374      10.05056315      11.44779447       0.00001235      -0.00002541      -0.00010938      -5.38351439
Si       9.67136190      10.05070618      13.81984277       0.00002492       0.00000942      -0.00002447      -5.38364879
Si       9.67157370      12.28383387      14.61341761       0.00000238      -0.00001497       0.00004500      -5.38332410
Si       9.67211491      12.28317589      16.98587238      -0.00000653       0.00005688      -0.00008230      -5.38358104
