216
Lattice="11.605727294873521 0.0 0.0 0.0 13.401139555673227 0.0 0.0 0.0 28.428109966331448" Properties=species:S:1:pos:R:3:forces:R:3 energy=-1165.333968614812 free_energy=-1165.333968614812 pbc="T T T"
Si       0.00000000       0.00000000      20.92624761      -0.00000000      -0.00009717       0.00011529
Si      11.60572729      13.40113956      23.29525678      -0.00000000      -0.00003968      -0.00003069
Si      11.60572729       2.23352326      24.08492650      -0.00000000      -0.00004758       0.00000533
Si      11.60572729       2.23352326      26.45393566      -0.00000000      -0.00006455      -0.00013692
Si      11.60572729       4.46704652      27.24360538      -0.00000000       0.00005697      -0.00006112
Si       0.00000000       4.46704652       1.18450458       0.00000000       0.00010132      -0.00002080
Si       1.93428788       1.11676163      27.24360538       0.00000462      -0.00004353       0.00016096
Si       1.93428788       1.11676163       1.18450458       0.00000462       0.00004353      -0.00016096
Si       1.93428788       3.35028489      20.92624761       0.00002684       0.00000698       0.00007359
Si       1.93428788       3.35028489      23.29525678       0.00002477      -0.00002836      -0.00002883
Si       1.93428788       5.58380815      24.08492650       0.00009047      -0.00000648      -0.00005044
Si       1.93428788       5.58380815      26.45393566      -0.00009416      -0.00010004       0.00011611
Si       3.86857576      13.40113956      20.92624761       0.00005414      -0.00004439      -0.00006260
Si       3.86857576      13.40113956      23.29525678       0.00002854      -0.00001421      -0.00001804
Si       3.86857576       2.23352326      24.08492650      -0.00003873      -0.00001197      -0.00011366
Si       3.86857576       2.23352326      26.45393566      -0.00003920      -0.00001416       0.00000243
Si       3.86857576       4.46704652      27.24360538       0.00011230      -0.00002974       0.00004843
Si       3.86857576       4.46704652       1.18450458       0.00004395       0.00005846       0.00009205
Si       5.80286365       1.11676163      27.24360538      -0.00000000      -0.00004958      -0.00002037
Si       5.80286365       1.11676163       1.18450458       0.00000000       0.00004958       0.00002037
Si       5.80286365       3.35028489      20.92624761       0.00000000       0.00001225       0.00005569
Si       5.80286365       3.35028489      23.29525678       0.00000000      -0.00005711      -0.00003989
Si       5.80286365       5.58380815      24.08492650       0.00000000      -0.00004615       0.00010167
Si       5.80286365       5.58380815      26.45393566       0.00000000       0.00005474       0.00008960
Si       7.73715153      13.40113956      20.92624761      -0.00005414      -0.00004439      -0.00006260
Si       7.73715153      13.40113956      23.29525678      -0.00002854      -0.00001421      -0.00001804
Si       7.73715153       2.23352326      24.08492650       0.00003873      -0.00001197      -0.00011366
Si       7.73715153       2.23352326      26.45393566       0.00003920      -0.00001416       0.00000243
Si       7.73715153       4.46704652      27.24360538      -0.00011230      -0.00002974       0.00004843
Si       7.73715153       4.46704652       1.18450458      -0.00004395       0.00005846       0.00009205
Si       9.67143941       1.11676163      27.24360538      -0.00000462      -0.00004353       0.00016096
Si       9.67143941       1.11676163       1.18450458      -0.00000462       0.00004353      -0.00016096
Si       9.67143941       3.35028489      20.92624761      -0.00002684       0.00000698       0.00007359
Si       9.67143941       3.35028489      23.29525678      -0.00002477      -0.00002836      -0.00002883
Si       9.67143941       5.58380815      24.08492650      -0.00009047      -0.00000648      -0.00005044
Si       9.67143941       5.58380815      26.45393566       0.00009416      -0.00010004       0.00011611
Si      11.60572729       6.70056978      20.92624761       0.00000000      -0.00014793       0.00003661
Si      11.60572729       6.70056978      23.29525678       0.00000000      -0.00012272       0.00005214
Si      11.60572729       8.93409304      24.08492650      -0.00000000      -0.00012910      -0.00008760
Si      11.60572729       8.93409304      26.45393566      -0.00000000      -0.00004410       0.00006996
Si      11.60572729      11.16761630      27.24360538      -0.00000000      -0.00010132       0.00002080
Si       0.00000000      11.16761630       1.18450458       0.00000000      -0.00005697       0.00006112
Si       1.93428788       7.81733141      27.24360538       0.00007420       0.00004426      -0.00003150
Si       1.93428788       7.81733141       1.18450458       0.00007420      -0.00004426       0.00003150
Si       1.93428788      10.05085467      20.92624761       0.00006191      -0.00008182      -0.00002281
Si       1.93428788      10.05085467      23.29525678      -0.00005034      -0.00006306      -0.00004878
Si       1.93428788      12.28437793      24.08492650       0.00005438      -0.00007303      -0.00014157
Si       1.93428788      12.28437793      26.45393566       0.00007773       0.00005883       0.00005269
Si       3.86857576       6.70056978      20.92624761       0.00002749      -0.00003621      -0.00001333
Si       3.86857576       6.70056978      23.29525678      -0.00007804      -0.00004809       0.00000687
Si       3.86857576       8.93409304      24.08492650       0.00000946       0.00000760       0.00010726
Si       3.86857576       8.93409304      26.45393566      -0.00002238       0.00001396      -0.00007621
Si       3.86857576      11.16761630      27.24360538       0.00004395      -0.00005846      -0.00009205
Si       3.86857576      11.16761630       1.18450458       0.00011230       0.00002974      -0.00004843
B        5.80286365       7.81733141      27.24360538      -0.00000000      -0.00000443      -0.00001362
Si       5.80286365       7.81733141       1.18450458       0.00000000       0.00000443       0.00001362
Si       5.80286365      10.05085467      20.92624761      -0.00000000       0.00008769      -0.00015584
Si       5.80286365      10.05085467      23.29525678       0.00000000       0.00009863      -0.00000410
Si       5.80286365      12.28437793      24.08492650       0.00000000      -0.00011084      -0.00009990
Si       5.80286365      12.28437793      26.45393566      -0.00000000      -0.00004912      -0.00009022
Si       7.73715153       6.70056978      20.92624761      -0.00002749      -0.00003621      -0.00001333
Si       7.73715153       6.70056978      23.29525678       0.00007804      -0.00004809       0.00000687
Si       7.73715153       8.93409304      24.08492650      -0.00000946       0.00000760       0.00010726
Si       7.73715153       8.93409304      26.45393566       0.00002238       0.00001396      -0.00007621
Si       7.73715153      11.16761630      27.24360538      -0.00004395      -0.00005846      -0.00009205
Si       7.73715153      11.16761630       1.18450458      -0.00011230       0.00002974      -0.00004843
Si       9.67143941       7.81733141      27.24360538      -0.00007420       0.00004426      -0.00003150
Si       9.67143941       7.81733141       1.18450458      -0.00007420      -0.00004426       0.00003150
Si       9.67143941      10.05085467      20.92624761      -0.00006191      -0.00008182      -0.00002281
Si       9.67143941      10.05085467      23.29525678       0.00005034      -0.00006306      -0.00004878
Si       9.67143941      12.28437793      24.08492650      -0.00005438      -0.00007303      -0.00014157
Si       9.67143941      12.28437793      26.45393566      -0.00007773       0.00005883       0.00005269
Si      11.60572729      13.40113956       1.97417430      -0.00000000       0.00006455       0.00013692
Si      11.60572729      13.40113956       4.34318347       0.00000000       0.00004758      -0.00000533
Si      11.60572729       2.23352326       5.13285319      -0.00000000       0.00003968       0.00003069
Si      11.60572729       2.23352326       7.50186235      -0.00000000       0.00009717      -0.00011529
Si      11.60572729       4.46704652       8.29153207       0.00000000       0.00011915       0.00004168
Si       0.00000000       4.46704652      10.66054124      -0.00000000       0.00011892      -0.00006244
Si       1.93428788       1.11676163       8.29153207       0.00003219       0.00002600      -0.00003501
Si       1.93428788       1.11676163      10.66054124      -0.00000808      -0.00000731      -0.00009877
Si       1.93428788       3.35028489       1.97417430       0.00007773      -0.00005883      -0.00005269
Si       1.93428788       3.35028489       4.34318347       0.00005438       0.00007303       0.00014157
Si       1.93428788       5.58380815       5.13285319      -0.00005034       0.00006306       0.00004878
Si       1.93428788       5.58380815       7.50186235       0.00006191       0.00008182       0.00002281
Si       3.86857576      13.40113956       1.97417430      -0.00003920       0.00001416      -0.00000243
Si       3.86857576      13.40113956       4.34318347      -0.00003873       0.00001197       0.00011366
Si       3.86857576       2.23352326       5.13285319       0.00002854       0.00001421       0.00001804
Si       3.86857576       2.23352326       7.50186235       0.00005414       0.00004439       0.00006260
Si       3.86857576       4.46704652       8.29153207      -0.00000850       0.00004079      -0.00002066
Si       3.86857576       4.46704652      10.66054124       0.00005128       0.00005227      -0.00004497
Si       5.80286365       1.11676163       8.29153207       0.00000000       0.00005417      -0.00004390
Si       5.80286365       1.11676163      10.66054124       0.00000000      -0.00008113      -0.00008310
Si       5.80286365       3.35028489       1.97417430       0.00000000       0.00004912       0.00009022
Si       5.80286365       3.35028489       4.34318347      -0.00000000       0.00011084       0.00009990
Si       5.80286365       5.58380815       5.13285319      -0.00000000      -0.00009863       0.00000410
Si       5.80286365       5.58380815       7.50186235       0.00000000      -0.00008769       0.00015584
Si       7.73715153      13.40113956       1.97417430       0.00003920       0.00001416      -0.00000243
Si       7.73715153      13.40113956       4.34318347       0.00003873       0.00001197       0.00011366
Si       7.73715153       2.23352326       5.13285319      -0.00002854       0.00001421       0.00001804
Si       7.73715153       2.23352326       7.50186235      -0.00005414       0.00004439       0.00006260
Si       7.73715153       4.46704652       8.29153207       0.00000850       0.00004079      -0.00002066
Si       7.73715153       4.46704652      10.66054124      -0.00005128       0.00005227      -0.00004497
Si       9.67143941       1.11676163       8.29153207      -0.00003219       0.00002600      -0.00003501
Si       9.67143941       1.11676163      10.66054124       0.00000808      -0.00000731      -0.00009877
Si       9.67143941       3.35028489       1.97417430      -0.00007773      -0.00005883      -0.00005269
Si       9.67143941       3.35028489       4.34318347      -0.00005438       0.00007303       0.00014157
Si       9.67143941       5.58380815       5.13285319       0.00005034       0.00006306       0.00004878
Si       9.67143941       5.58380815       7.50186235      -0.00006191       0.00008182       0.00002281
Si      11.60572729       6.70056978       1.97417430      -0.00000000       0.00004410      -0.00006996
Si      11.60572729       6.70056978       4.34318347      -0.00000000       0.00012910       0.00008760
Si      11.60572729       8.93409304       5.13285319      -0.00000000       0.00012272      -0.00005214
Si      11.60572729       8.93409304       7.50186235       0.00000000       0.00014793      -0.00003661
Si      11.60572729      11.16761630       8.29153207      -0.00000000      -0.00003314      -0.00014134
Si       0.00000000      11.16761630      10.66054124      -0.00000000       0.00003116      -0.00013014
Si       1.93428788       7.81733141       8.29153207      -0.00001190       0.00000111      -0.00009379
Si       1.93428788       7.81733141      10.66054124       0.00005710       0.00001948       0.00005189
Si       1.93428788      10.05085467       1.97417430      -0.00009416       0.00010004      -0.00011611
Si       1.93428788      10.05085467       4.34318347       0.00009047       0.00000648       0.00005044
Si       1.93428788      12.28437793       5.13285319       0.00002477       0.00002836       0.00002883
Si       1.93428788      12.28437793       7.50186235       0.00002684      -0.00000698      -0.00007359
Si       3.86857576       6.70056978       1.97417430      -0.00002238      -0.00001396       0.00007621
Si       3.86857576       6.70056978       4.34318347       0.00000946      -0.00000760      -0.00010726
Si       3.86857576       8.93409304       5.13285319      -0.00007804       0.00004809      -0.00000687
Si       3.86857576       8.93409304       7.50186235       0.00002749       0.00003621       0.00001333
Si       3.86857576      11.16761630       8.29153207      -0.00000257       0.00008040       0.00005661
Si       3.86857576      11.16761630      10.66054124       0.00000988       0.00004179      -0.00005294
Si       5.80286365       7.81733141       8.29153207      -0.00000000       0.00007238      -0.00000056
Si       5.80286365       7.81733141      10.66054124      -0.00000000       0.00003439      -0.00003315
Si       5.80286365      10.05085467       1.97417430      -0.00000000      -0.00005474      -0.00008960
Si       5.80286365      10.05085467       4.34318347       0.00000000       0.00004615      -0.00010167
Si       5.80286365      12.28437793       5.13285319      -0.00000000       0.00005711       0.00003989
Si       5.80286365      12.28437793       7.50186235       0.00000000      -0.00001225      -0.00005569
Si       7.73715153       6.70056978       1.97417430       0.00002238      -0.00001396       0.00007621
Si       7.73715153       6.70056978       4.34318347      -0.00000946      -0.00000760      -0.00010726
Si       7.73715153       8.93409304       5.13285319       0.00007804       0.00004809      -0.00000687
Si       7.73715153       8.93409304       7.50186235      -0.00002749       0.00003621       0.00001333
Si       7.73715153      11.16761630       8.29153207       0.00000257       0.00008040       0.00005661
Si       7.73715153      11.16761630      10.66054124      -0.00000988       0.00004179      -0.00005294
Si       9.67143941       7.81733141       8.29153207       0.00001190       0.00000111      -0.00009379
Si       9.67143941       7.81733141      10.66054124      -0.00005710       0.00001948       0.00005189
Si       9.67143941      10.05085467       1.97417430       0.00009416       0.00010004      -0.00011611
Si       9.67143941      10.05085467       4.34318347      -0.00009047       0.00000648       0.00005044
Si       9.67143941      12.28437793       5.13285319      -0.00002477       0.00002836       0.00002883
Si       9.67143941      12.28437793       7.50186235      -0.00002684      -0.00000698      -0.00007359
Si      11.60572729      13.40113956      11.45021096       0.00000000       0.00001599       0.00010754
Si      11.60572729      13.40113956      13.81922012       0.00000000       0.00004195      -0.00009092
Si      11.60572729       2.23352326      14.60888984       0.00000000      -0.00004195       0.00009092
Si      11.60572729       2.23352326      16.97789901       0.00000000      -0.00001599      -0.00010754
Si      11.60572729       4.46704652      17.76756873       0.00000000      -0.00003116       0.00013014
Si       0.00000000       4.46704652      20.13657789      -0.00000000       0.00003314       0.00014134
Si       1.93428788       1.11676163      17.76756873      -0.00000808       0.00000731       0.00009877
Si       1.93428788       1.11676163      20.13657789       0.00003219      -0.00002600       0.00003501
Si       1.93428788       3.35028489      11.45021096       0.00000037       0.00004249       0.00003315
Si       1.93428788       3.35028489      13.81922012      -0.00002396       0.00000481      -0.00001143
Si       1.93428788       5.58380815      14.60888984       0.00007019       0.00003170       0.00000762
Si       1.93428788       5.58380815      16.97789901       0.00005283      -0.00006963      -0.00003956
Si       3.86857576      13.40113956      11.45021096      -0.00002667      -0.00008077       0.00001538
Si       3.86857576      13.40113956      13.81922012      -0.00000038      -0.00001717      -0.00005078
Si       3.86857576       2.23352326      14.60888984      -0.00000038       0.00001717       0.00005078
Si       3.86857576       2.23352326      16.97789901      -0.00002667       0.00008077      -0.00001538
Si       3.86857576       4.46704652      17.76756873       0.00000988      -0.00004179       0.00005294
Si       3.86857576       4.46704652      20.13657789      -0.00000257      -0.00008040      -0.00005661
Si       5.80286365       1.11676163      17.76756873       0.00000000       0.00008113       0.00008310
Si       5.80286365       1.11676163      20.13657789      -0.00000000      -0.00005417       0.00004390
Si       5.80286365       3.35028489      11.45021096      -0.00000000       0.00000564       0.00010756
Si       5.80286365       3.35028489      13.81922012       0.00000000      -0.00000395       0.00002454
Si       5.80286365       5.58380815      14.60888984       0.00000000      -0.00000000      -0.00002766
Si       5.80286365       5.58380815      16.97789901      -0.00000000      -0.00006418       0.00006380
Si       7.73715153      13.40113956      11.45021096       0.00002667      -0.00008077       0.00001538
Si       7.73715153      13.40113956      13.81922012       0.00000038      -0.00001717      -0.00005078
Si       7.73715153       2.23352326      14.60888984       0.00000038       0.00001717       0.00005078
Si       7.73715153       2.23352326      16.97789901       0.00002667       0.00008077      -0.00001538
Si       7.73715153       4.46704652      17.76756873      -0.00000988      -0.00004179       0.00005294
Si       7.73715153       4.46704652      20.13657789       0.00000257      -0.00008040      -0.00005661
Si       9.67143941       1.11676163      17.76756873       0.00000808       0.00000731       0.00009877
Si       9.67143941       1.11676163      20.13657789      -0.00003219      -0.00002600       0.00003501
Si       9.67143941       3.35028489      11.45021096      -0.00000037       0.00004249       0.00003315
Si       9.67143941       3.35028489      13.81922012       0.00002396       0.00000481      -0.00001143
Si       9.67143941       5.58380815      14.60888984      -0.00007019       0.00003170       0.00000762
Si       9.67143941       5.58380815      16.97789901      -0.00005283      -0.00006963      -0.00003956
Si      11.60572729       6.70056978      11.45021096      -0.00000000       0.00005453       0.00001225
Si      11.60572729       6.70056978      13.81922012       0.00000000      -0.00003214      -0.00001766
Si      11.60572729       8.93409304      14.60888984       0.00000000       0.00003214       0.00001766
Si      11.60572729       8.93409304      16.97789901       0.00000000      -0.00005453      -0.00001225
Si      11.60572729      11.16761630      17.76756873      -0.00000000      -0.00011892       0.00006244
Si       0.00000000      11.16761630      20.13657789      -0.00000000      -0.00011915      -0.00004168
Si       1.93428788       7.81733141      17.76756873       0.00005710      -0.00001948      -0.00005189
Si       1.93428788       7.81733141      20.13657789      -0.00001190      -0.00000111       0.00009379
Si       1.93428788      10.05085467      11.45021096       0.00005283       0.00006963       0.00003956
Si       1.93428788      10.05085467      13.81922012       0.00007019      -0.00003170      -0.00000762
Si       1.93428788      12.28437793      14.60888984      -0.00002396      -0.00000481       0.00001143
Si       1.93428788      12.28437793      16.97789901       0.00000037      -0.00004249      -0.00003315
Si       3.86857576       6.70056978      11.45021096       0.00002917       0.00004427       0.00006593
Si       3.86857576       6.70056978      13.81922012       0.00004899       0.00005452       0.00002221
Si       3.86857576       8.93409304      14.60888984       0.00004899      -0.00005452      -0.00002221
Si       3.86857576       8.93409304      16.97789901       0.00002917      -0.00004427      -0.00006593
Si       3.86857576      11.16761630      17.76756873       0.00005128      -0.00005227       0.00004497
Si       3.86857576      11.16761630      20.13657789      -0.00000850      -0.00004079       0.00002066
Si       5.80286365       7.81733141      17.76756873       0.00000000      -0.00003439       0.00003315
Si       5.80286365       7.81733141      20.13657789       0.00000000      -0.00007238       0.00000056
Si       5.80286365      10.05085467      11.45021096      -0.00000000       0.00006418      -0.00006380
Si       5.80286365      10.05085467      13.81922012      -0.00000000       0.00000000       0.00002766
Si       5.80286365      12.28437793      14.60888984      -0.00000000       0.00000395      -0.00002454
Si       5.80286365      12.28437793      16.97789901       0.00000000      -0.00000564      -0.00010756
Si       7.73715153       6.70056978      11.45021096      -0.00002917       0.00004427       0.00006593
Si       7.73715153       6.70056978      13.81922012      -0.00004899       0.00005452       0.00002221
Si       7.73715153       8.93409304      14.60888984      -0.00004899      -0.00005452      -0.00002221
Si       7.73715153       8.93409304      16.97789901      -0.00002917      -0.00004427      -0.00006593
Si       7.73715153      11.16761630      17.76756873      -0.00005128      -0.00005227       0.00004497
Si       7.73715153      11.16761630      20.13657789       0.00000850      -0.00004079       0.00002066
Si       9.67143941       7.81733141      17.76756873      -0.00005710      -0.00001948      -0.00005189
Si       9.67143941       7.81733141      20.13657789       0.00001190      -0.00000111       0.00009379
Si       9.67143941      10.05085467      11.45021096      -0.00005283       0.00006963       0.00003956
Si       9.67143941      10.05085467      13.81922012      -0.00007019      -0.00003170      -0.00000762
Si       9.67143941      12.28437793      14.60888984       0.00002396      -0.00000481       0.00001143
Si       9.67143941      12.28437793      16.97789901      -0.00000037      -0.00004249      -0.00003315
