216
Lattice="11.605727294873521 0.0 0.0 0.0 13.401139555673227 0.0 0.0 0.0 28.428109966331448" Properties=species:S:1:pos:R:3:forces:R:3:energies:R:1 energy=-1163.5300644728977 stress="0.0018936316058347107 -1.7947851575702036e-17 1.0260799823188526e-17 -1.7947851575702036e-17 0.0019063121172549484 7.003696362866725e-08 1.0260799823188526e-17 7.003696362866725e-08 0.0019240301557162057" free_energy=-1163.5300644728977 pbc="T T T"
Si      11.60572729       0.00181762      20.91786738      -0.00000000      -0.00004637      -0.00008088      -5.38238186
Si       0.00000000       0.00123488      23.28777450       0.00000000      -0.00004487       0.00003679      -5.38437501
Si       0.00000000       2.23663974      24.07379274      -0.00000000      -0.00007032      -0.00010489      -5.38242197
Si       0.00000000       2.23477219      26.44644360      -0.00000000      -0.00002333       0.00006086      -5.38340443
Si       0.00000000       4.46795814      27.23914375      -0.00000000      -0.00001517      -0.00004710      -5.38359532
Si       0.00000000       4.46756474       1.18330433      -0.00000000      -0.00000683       0.00006467      -5.38337960
Si       1.93437537       1.11764978      27.23981169      -0.00000970       0.00002380      -0.00007790      -5.38336614
Si       1.93440622       1.11706033       1.18375507      -0.00005473       0.00001643      -0.00001450      -5.38344385
Si       1.94111398       3.35564455      20.90581403       0.00003624      -0.00003717      -0.00004622      -5.38077585
Si       1.93639969       3.35236081      23.27964962       0.00000889      -0.00008017       0.00002619      -5.38320387
Si       1.93563980       5.58460793      24.07421794      -0.00003376      -0.00002182      -0.00002338      -5.38382153
Si       1.93478577       5.58421575      26.44662547      -0.00001905      -0.00004938       0.00016290      -5.38336834
Si       3.86962595      13.40068796      20.91691844       0.00001250       0.00001091      -0.00009712      -5.38226760
Si       3.86914538      13.40068100      23.28686382      -0.00002497       0.00003277       0.00001002      -5.38433607
Si       3.86960026       2.23472877      24.07404449      -0.00006981      -0.00004838      -0.00006614      -5.38360165
Si       3.86897143       2.23397108      26.44644757      -0.00001809       0.00001806       0.00006897      -5.38349300
Si       3.86895345       4.46737175      27.23886278      -0.00003033       0.00001692       0.00008580      -5.38383361
Si       3.86877919       4.46742760       1.18302464      -0.00004755       0.00001221       0.00007912      -5.38341862
Si       5.80286365       1.11655103      27.23963108      -0.00000000       0.00000918       0.00000168      -5.38338219
Si       5.80286365       1.11670417       1.18373963       0.00000000      -0.00003770      -0.00002767      -5.38348558
Si       5.80286365       3.35391834      20.90293009      -0.00000000       0.00000086      -0.00007710      -5.38503062
Si       5.80286365       3.35156979      23.27710132      -0.00000000       0.00000945       0.00011786      -5.38265536
Si       5.80286365       5.58360554      24.07192844       0.00000000       0.00004335       0.00004010      -5.38505329
Si       5.80286365       5.58383371      26.44501007      -0.00000000      -0.00005100       0.00008959      -5.38313014
Si       7.73610134      13.40068796      20.91691844      -0.00001250       0.00001091      -0.00009712      -5.38226760
Si       7.73658192      13.40068100      23.28686382       0.00002497       0.00003277       0.00001002      -5.38433607
Si       7.73612703       2.23472877      24.07404449       0.00006981      -0.00004838      -0.00006614      -5.38360165
Si       7.73675586       2.23397108      26.44644757       0.00001809       0.00001806       0.00006897      -5.38349300
Si       7.73677384       4.46737175      27.23886278       0.00003033       0.00001692       0.00008580      -5.38383361
Si       7.73694810       4.46742760       1.18302464       0.00004755       0.00001221       0.00007912      -5.38341862
Si       9.67135193       1.11764978      27.23981169       0.00000970       0.00002380      -0.00007790      -5.38336614
Si       9.67132107       1.11706033       1.18375507       0.00005473       0.00001643      -0.00001450      -5.38344385
Si       9.66461331       3.35564455      20.90581403      -0.00003624      -0.00003717      -0.00004622      -5.38077585
Si       9.66932760       3.35236081      23.27964962      -0.00000889      -0.00008017       0.00002619      -5.38320387
Si       9.67008750       5.58460793      24.07421794       0.00003376      -0.00002182      -0.00002338      -5.38382153
Si       9.67094152       5.58421575      26.44662547       0.00001905      -0.00004938       0.00016290      -5.38336834
Si       0.00000000       6.70128557      20.91553141      -0.00000000       0.00001561      -0.00003005      -5.38227570
Si       0.00000000       6.70110815      23.28566108      -0.00000000      -0.00000671       0.00003337      -5.38388174
Si       0.00000000       8.93396725      24.07949000       0.00000000      -0.00001281      -0.00009735      -5.38322578
Si       0.00000000       8.93397679      26.45044625      -0.00000000      -0.00001216       0.00003247      -5.38377152
Si       0.00000000      11.16759363      27.24252410       0.00000000      -0.00001214      -0.00012692      -5.38331628
Si       0.00000000      11.16724350       1.18603153      -0.00000000       0.00002078      -0.00007055      -5.38373798
Si       1.93458355       7.81703989      27.24118889      -0.00001235      -0.00002541      -0.00010938      -5.38351439
Si       1.93436539       7.81718292       1.18512723      -0.00002492       0.00000942      -0.00002447      -5.38364879
Si       1.93462679      10.04975847      20.91815567      -0.00001786       0.00004759      -0.00009037      -5.38242423
Si       1.93444505      10.05034339      23.28808849      -0.00003869       0.00006056       0.00004743      -5.38386119
Si       1.93441765      12.28453859      24.07911764      -0.00007563       0.00004075      -0.00014224      -5.38305650
Si       1.93438892      12.28436724      26.45019450      -0.00005032       0.00001550      -0.00005956      -5.38386987
Si       3.87135670       6.69865151      20.90369428      -0.00002358      -0.00000757      -0.00004712      -5.38509502
Si       3.86973259       6.69975841      23.27778294       0.00000835      -0.00002262       0.00004420      -5.38248623
Si       3.86903410       8.93191264      24.07575388      -0.00003427       0.00002824      -0.00006572      -5.38371119
Si       3.86877961       8.93324470      26.44805700      -0.00005085       0.00001312       0.00003010      -5.38341849
Si       3.86862863      11.16671846      27.24162981      -0.00000164      -0.00002442      -0.00012628      -5.38334272
Si       3.86851990      11.16705715       1.18563305      -0.00001636      -0.00002954       0.00001457      -5.38356999
Si       5.80286365       7.81659309      27.24019406      -0.00000000       0.00002956      -0.00005642      -5.38376422
Si       5.80286365       7.81729823       1.18446480       0.00000000       0.00000934       0.00008718      -5.38347661
Si       5.80286365      10.04082891      20.90824434       0.00000000       0.00001995      -0.00010239      -5.38090485
Si       5.80286365      10.04716582      23.28183887      -0.00000000       0.00006112      -0.00006645      -5.38296685
Si       5.80286365      12.28157827      24.07697650       0.00000000       0.00003657      -0.00008376      -5.38267986
Si       5.80286365      12.28321477      26.44882053      -0.00000000       0.00008409       0.00003613      -5.38369728
Si       7.73437059       6.69865151      20.90369428       0.00002358      -0.00000757      -0.00004712      -5.38509502
Si       7.73599471       6.69975841      23.27778294      -0.00000835      -0.00002262       0.00004420      -5.38248623
Si       7.73669320       8.93191264      24.07575388       0.00003427       0.00002824      -0.00006572      -5.38371119
Si       7.73694769       8.93324470      26.44805700       0.00005085       0.00001312       0.00003010      -5.38341849
Si       7.73709866      11.16671846      27.24162981       0.00000164      -0.00002442      -0.00012628      -5.38334272
Si       7.73720739      11.16705715       1.18563305       0.00001636      -0.00002954       0.00001457      -5.38356999
Si       9.67114374       7.81703989      27.24118889       0.00001235      -0.00002541      -0.00010938      -5.38351439
Si       9.67136190       7.81718292       1.18512723       0.00002492       0.00000942      -0.00002447      -5.38364879
Si       9.67110051      10.04975847      20.91815567       0.00001786       0.00004759      -0.00009037      -5.38242423
Si       9.67128224      10.05034339      23.28808849       0.00003869       0.00006056       0.00004743      -5.38386119
Si       9.67130965      12.28453859      24.07911764       0.00007563       0.00004075      -0.00014224      -5.38305650
Si       9.67133837      12.28436724      26.45019450       0.00005032       0.00001550      -0.00005956      -5.38386987
Si       0.00000000       0.00020569       1.97637917      -0.00000000      -0.00002299       0.00005761      -5.38357093
Si       0.00000000      13.40088611       4.34804478      -0.00000000      -0.00002887      -0.00002904      -5.38331781
Si       0.00000000       2.23387528       5.13861783      -0.00000000      -0.00002976       0.00011292      -5.38362164
Si       0.00000000       2.23366161       7.50923409       0.00000000       0.00010022       0.00001016      -5.38299365
Si       0.00000000       4.46662136       8.30169701       0.00000000       0.00000136       0.00013377      -5.38297325
Si       0.00000000       4.46594800      10.67185214      -0.00000000       0.00004198      -0.00005122      -5.38066112
Si       1.93430472       1.11722736       8.30025720      -0.00002470      -0.00006222       0.00010833      -5.38352057
Si       1.93473083       1.11897859      10.66986913       0.00005709       0.00000521      -0.00000105      -5.38149327
Si       1.93443524       3.35078213       1.97551336       0.00001648       0.00000351       0.00012675      -5.38364670
Si       1.93459450       3.35080262       4.34739750      -0.00003633      -0.00000775      -0.00001342      -5.38324637
Si       1.93457344       5.58415669       5.14110198      -0.00005506      -0.00000263       0.00004616      -5.38345988
Si       1.93530030       5.58351159       7.51254974      -0.00001261       0.00001667       0.00004224      -5.38454946
Si       3.86859874      13.40108450       1.97676112      -0.00000311       0.00003672       0.00006440      -5.38350805
Si       3.86859482       0.00001670       4.34884989      -0.00004378      -0.00007811       0.00000018      -5.38344664
Si       3.86894187       2.23394401       5.13983752      -0.00004814      -0.00003383       0.00007003      -5.38356348
Si       3.86900664       2.23546227       7.51100942       0.00004544      -0.00002499       0.00005208      -5.38424658
Si       3.87024310       4.46850579       8.30376171       0.00001039       0.00001451       0.00005390      -5.38392274
Si       3.87656662       4.47301092      10.67652162       0.00000985      -0.00004695      -0.00005914      -5.38552632
Si       5.80286365       1.12473263       8.31134894       0.00000000      -0.00005252       0.00011741      -5.38205933
Si       5.80286365       1.14495891      10.68970507      -0.00000000       0.00007122      -0.00006225      -5.36968208
Si       5.80286365       3.35052658       1.97565229       0.00000000       0.00003810       0.00004647      -5.38367521
Si       5.80286365       3.35095297       4.34756200       0.00000000      -0.00003940       0.00005081      -5.38357266
Si       5.80286365       5.58423401       5.14136868       0.00000000      -0.00001341       0.00002805      -5.38366210
Si       5.80286365       5.58492482       7.51212942       0.00000000      -0.00007592      -0.00007863      -5.39016278
Si       7.73712855      13.40108450       1.97676112       0.00000311       0.00003672       0.00006440      -5.38350805
Si       7.73713247       0.00001670       4.34884989       0.00004378      -0.00007811       0.00000018      -5.38344664
Si       7.73678542       2.23394401       5.13983752       0.00004814      -0.00003383       0.00007003      -5.38356348
Si       7.73672065       2.23546227       7.51100942      -0.00004544      -0.00002499       0.00005208      -5.38424658
Si       7.73548420       4.46850579       8.30376171      -0.00001039       0.00001451       0.00005390      -5.38392274
Si       7.72916068       4.47301092      10.67652162      -0.00000985      -0.00004695      -0.00005914      -5.38552632
Si       9.67142257       1.11722736       8.30025720       0.00002470      -0.00006222       0.00010833      -5.38352057
Si       9.67099647       1.11897859      10.66986913      -0.00005709       0.00000521      -0.00000105      -5.38149327
Si       9.67129205       3.35078213       1.97551336      -0.00001648       0.00000351       0.00012675      -5.38364670
Si       9.67113279       3.35080262       4.34739750       0.00003633      -0.00000775      -0.00001342      -5.38324637
Si       9.67115386       5.58415669       5.14110198       0.00005506      -0.00000263       0.00004616      -5.38345988
Si       9.67042699       5.58351159       7.51254974       0.00001261       0.00001667       0.00004224      -5.38454946
Si       0.00000000       6.70061242       1.97744635       0.00000000      -0.00001488       0.00010145      -5.38341859
Si       0.00000000       6.70043745       4.34972602       0.00000000       0.00010071      -0.00010260      -5.38397361
Si       0.00000000       8.93215488       5.14638562       0.00000000       0.00000821       0.00003239      -5.38278270
Si       0.00000000       8.92780069       7.52106155       0.00000000      -0.00006687      -0.00005126      -5.38149236
Si       0.00000000      11.16359393       8.30539146       0.00000000       0.00001420       0.00004690      -5.38490417
Si       0.00000000      11.15810450      10.67604144      -0.00000000      -0.00014598      -0.00003272      -5.38079084
Si       1.93860276       7.81267209       8.31592903      -0.00001664       0.00005076       0.00007069      -5.38255377
Si       1.95165726       7.80117002      10.69528356      -0.00003057      -0.00003522      -0.00006193      -5.36871652
Si       1.93415360      10.05031062       1.97870207      -0.00000238      -0.00001497       0.00004500      -5.38332410
Si       1.93361238      10.04965263       4.35115684       0.00000653       0.00005688      -0.00008230      -5.38358104
Si       1.93406031      12.28386016       5.14104719      -0.00004972      -0.00002719       0.00009458      -5.38376632
Si       1.93364788      12.28326452       7.51244387       0.00005148      -0.00007075      -0.00006399      -5.38293576
Si       3.86873574       6.70057324       1.97701330       0.00000525      -0.00001704      -0.00006011      -5.38361746
Si       3.86870529       6.70094114       4.34910759       0.00001167       0.00003439      -0.00009119      -5.38370676
Si       3.86827139       8.93384538       5.14351543      -0.00005310       0.00006837       0.00004338      -5.38362282
Si       3.86852783       8.93359549       7.51553337      -0.00000802       0.00008006      -0.00010876      -5.38383100
Si       3.86903208      11.16912099       8.30517918      -0.00004561       0.00000847       0.00005745      -5.38451346
Si       3.87027106      11.17099536      10.67581078       0.00000849       0.00003591      -0.00013537      -5.37990697
Si       5.80286365       7.81634096       8.30671710       0.00000000       0.00001770       0.00001202      -5.38450692
Si       5.80286365       7.80913195      10.67986701       0.00000000       0.00006982      -0.00013232      -5.38470819
Si       5.80286365      10.05056059       1.97850991       0.00000000      -0.00001381      -0.00002693      -5.38343036
Si       5.80286365      10.05117677       4.35117695      -0.00000000      -0.00002884      -0.00010694      -5.38311671
Si       5.80286365      12.28554475       5.14324568       0.00000000       0.00003666       0.00006038      -5.38339712
Si       5.80286365      12.28942727       7.51613302       0.00000000       0.00003256      -0.00003080      -5.38184845
Si       7.73699156       6.70057324       1.97701330      -0.00000525      -0.00001704      -0.00006011      -5.38361746
Si       7.73702200       6.70094114       4.34910759      -0.00001167       0.00003439      -0.00009119      -5.38370676
Si       7.73745591       8.93384538       5.14351543       0.00005310       0.00006837       0.00004338      -5.38362282
Si       7.73719946       8.93359549       7.51553337       0.00000802       0.00008006      -0.00010876      -5.38383100
Si       7.73669521      11.16912099       8.30517918       0.00004561       0.00000847       0.00005745      -5.38451346
Si       7.73545624      11.17099536      10.67581078      -0.00000849       0.00003591      -0.00013537      -5.37990697
Si       9.66712453       7.81267209       8.31592903       0.00001664       0.00005076       0.00007069      -5.38255377
Si       9.65407003       7.80117002      10.69528356       0.00003057      -0.00003522      -0.00006193      -5.36871652
Si       9.67157370      10.05031062       1.97870207       0.00000238      -0.00001497       0.00004500      -5.38332410
Si       9.67211491      10.04965263       4.35115684      -0.00000653       0.00005688      -0.00008230      -5.38358104
Si       9.67166698      12.28386016       5.14104719       0.00004972      -0.00002719       0.00009458      -5.38376632
Si       9.67207941      12.28326452       7.51244387      -0.00005148      -0.00007075      -0.00006399      -5.38293576
Si       0.00000000      13.39745012      11.45670944       0.00000000      -0.00003134       0.00005365      -5.38392903
Si       0.00000000      13.39386037      13.82412232      -0.00000000      -0.00003270      -0.00001559      -5.38437242
Si       0.00000000       2.23302321      14.60736555      -0.00000000      -0.00010828       0.00009493      -5.38223298
Si       0.00000000       2.23446085      16.97182156       0.00000000       0.00004402       0.00007025      -5.39868238
Si       0.00000000       4.46796699      17.75571276       0.00000000      -0.00018087      -0.00001784      -5.38269373
Si       0.00000000       4.46798514      20.12392358      -0.00000000       0.00002652       0.00006994      -5.38654583
Si       1.93568182       1.11981370      17.75787832      -0.00005772      -0.00000084      -0.00003950      -5.38245660
Si       1.93527452       1.11809268      20.12662282       0.00010795      -0.00000765       0.00005364      -5.38567122
Si       1.94010931       3.35429937      11.46090526      -0.00003859      -0.00006902       0.00007475      -5.37845174
Si       1.94160609       3.35549811      13.82818819       0.00002942       0.00004840       0.00002760      -5.38718090
Si       1.98659434       5.58486923      14.60693594       0.00004611       0.00001286      -0.00002233      -5.34972560
Si       1.94226538       5.57915263      16.96525865      -0.00006853      -0.00001944       0.00005909      -5.38752802
Si       3.87133021       0.01070921      11.46191776      -0.00002094      -0.00001794       0.00003043      -5.38574313
Si       3.87784397       0.03089754      13.82852241       0.00007629       0.00001588      -0.00005203      -5.37115384
Si       3.89997159       2.29017896      14.60736738       0.00003762       0.00002282       0.00000361      -5.35307769
Si       3.86963392       2.24469358      16.96565223       0.00002930      -0.00001377       0.00007128      -5.38677471
Si       3.90026010       4.48642638      17.70631379       0.00005286      -0.00000087       0.00000087      -5.35328952
Si       3.87823181       4.47307339      20.09353258       0.00000565       0.00000871       0.00010763      -5.37118247
Si       5.80286365       1.12447557      17.75468454      -0.00000000      -0.00006214      -0.00000126      -5.37775087
Si       5.80286365       1.11818369      20.12422968       0.00000000      -0.00007980       0.00011448      -5.38319438
Si       5.80286365       3.38921762      11.50797295       0.00000000      -0.00000600       0.00005992      -5.35471390
Si       5.80286365       3.56529809      13.89649838       0.00000000      -0.00009447      -0.00002836      -5.40018569
B        5.80286365       5.58513948      14.60803547      -0.00000000      -0.00001622       0.00004622      -6.50763609
Si       5.80286365       5.58446859      16.74619290       0.00000000       0.00001121       0.00013085      -5.40250551
Si       7.73439708       0.01070921      11.46191776       0.00002094      -0.00001794       0.00003043      -5.38574313
Si       7.72788333       0.03089754      13.82852241      -0.00007629       0.00001588      -0.00005203      -5.37115384
Si       7.70575570       2.29017896      14.60736738      -0.00003762       0.00002282       0.00000361      -5.35307769
Si       7.73609337       2.24469358      16.96565223      -0.00002930      -0.00001377       0.00007128      -5.38677471
Si       7.70546719       4.48642638      17.70631379      -0.00005286      -0.00000087       0.00000087      -5.35328952
Si       7.72749548       4.47307339      20.09353258      -0.00000565       0.00000871       0.00010763      -5.37118247
Si       9.67004548       1.11981370      17.75787832       0.00005772      -0.00000084      -0.00003950      -5.38245660
Si       9.67045278       1.11809268      20.12662282      -0.00010795      -0.00000765       0.00005364      -5.38567122
Si       9.66561798       3.35429937      11.46090526       0.00003859      -0.00006902       0.00007475      -5.37845174
Si       9.66412120       3.35549811      13.82818819      -0.00002942       0.00004840       0.00002760      -5.38718090
Si       9.61913296       5.58486923      14.60693594      -0.00004611       0.00001286      -0.00002233      -5.34972560
Si       9.66346191       5.57915263      16.96525865       0.00006853      -0.00001944       0.00005909      -5.38752802
Si       0.00000000       6.69391773      11.46837951       0.00000000       0.00009102       0.00008415      -5.38780645
Si       0.00000000       6.68559841      13.83389031      -0.00000000      -0.00011336      -0.00001793      -5.35721450
Si       0.00000000       8.92363534      14.61114936      -0.00000000       0.00010061       0.00003807      -5.38637256
Si       0.00000000       8.92967167      16.97428481      -0.00000000      -0.00004786       0.00004865      -5.38191258
Si       0.00000000      11.16588504      17.76116894      -0.00000000      -0.00003124      -0.00002418      -5.38165813
Si      11.60572729      11.16761544      20.12975661      -0.00000000       0.00002823       0.00004145      -5.38379186
Si       1.94040971       7.81282689      17.75525715      -0.00009787       0.00012382      -0.00003163      -5.37752625
Si       1.93551926       7.81646523      20.12454368      -0.00003989      -0.00004570       0.00007593      -5.38247706
Si       1.94084284      10.04230254      11.46515856       0.00002723       0.00002310       0.00003159      -5.38821280
Si       1.95315369      10.02695857      13.83135734       0.00004752      -0.00002004      -0.00006913      -5.36859983
Si       1.94494517      12.28104877      14.60754725       0.00003550      -0.00003695      -0.00004863      -5.37926531
Si       1.93586195      12.28401332      16.97425240       0.00012635      -0.00001187      -0.00001183      -5.38700929
Si       3.89914146       6.68239850      11.51028027       0.00005445       0.00004022       0.00000777      -5.35582233
Si       4.04925521       6.59396610      13.89863452      -0.00012634       0.00000111      -0.00004011      -5.39778641
Si       3.89988390       8.88007703      14.60918683       0.00001882       0.00001846      -0.00002824      -5.35482696
Si       3.87698258       8.92780771      16.96725676       0.00003256       0.00001628      -0.00006066      -5.38626938
Si       3.87082002      11.16481640      17.76013480       0.00006226       0.00006124      -0.00006719      -5.38250475
Si       3.86947869      11.16590720      20.12807061       0.00006760       0.00004381       0.00002276      -5.38522992
Si       5.80286365       7.77994363      17.70815988      -0.00000000      -0.00001920      -0.00007314      -5.35359537
Si       5.80286365       7.80534269      20.09492788      -0.00000000       0.00003262       0.00000223      -5.37103728
Si       5.80286365      10.04655539      11.46503051      -0.00000000       0.00001039      -0.00006605      -5.38130950
Si       5.80286365      10.04657945      13.83199111      -0.00000000       0.00008913      -0.00011351      -5.38396728
Si       5.80286365      12.29357511      14.61057338      -0.00000000       0.00003562       0.00002310      -5.38514605
Si       5.80286365      12.28726735      16.97433744       0.00000000      -0.00001025       0.00000028      -5.38969256
Si       7.70658583       6.68239850      11.51028027      -0.00005445       0.00004022       0.00000777      -5.35582233
Si       7.55647208       6.59396610      13.89863452       0.00012634       0.00000111      -0.00004011      -5.39778641
Si       7.70584339       8.88007703      14.60918683      -0.00001882       0.00001846      -0.00002824      -5.35482696
Si       7.72874471       8.92780771      16.96725676      -0.00003256       0.00001628      -0.00006066      -5.38626938
Si       7.73490727      11.16481640      17.76013480      -0.00006226       0.00006124      -0.00006719      -5.38250475
Si       7.73624860      11.16590720      20.12807061      -0.00006760       0.00004381       0.00002276      -5.38522992
Si       9.66531758       7.81282689      17.75525715       0.00009787       0.00012382      -0.00003163      -5.37752625
Si       9.67020804       7.81646523      20.12454368       0.00003989      -0.00004570       0.00007593      -5.38247706
Si       9.66488446      10.04230254      11.46515856      -0.00002723       0.00002310       0.00003159      -5.38821280
Si       9.65257361      10.02695857      13.83135734      -0.00004752      -0.00002004      -0.00006913      -5.36859983
Si       9.66078212      12.28104877      14.60754725      -0.00003550      -0.00003695      -0.00004863      -5.37926531
Si       9.66986535      12.28401332      16.97425240      -0.00012635      -0.00001187      -0.00001183      -5.38700929
