216
Lattice="11.605727294873521 0.0 0.0 0.0 13.401139555673227 0.0 0.0 0.0 28.428109966331448" Properties=species:S:1:pos:R:3:forces:R:3 energy=-1168.438940903158 free_energy=-1168.438940903158 pbc="T T T"
Si       0.00000000       0.00000000      20.92624761       0.00003048      -0.00000830       0.00002647
Si      11.60572729      13.40113956      23.29525678       0.00004312       0.00006045      -0.00006822
Si      11.60572729       2.23352326      24.08492650      -0.00002399       0.00001799      -0.00005469
Si      11.60572729       2.23352326      26.45393566      -0.00012442       0.00008060       0.00004640
Si      11.60572729       4.46704652      27.24360538       0.00000316       0.00013991       0.00011017
Si       0.00000000       4.46704652       1.18450458      -0.00011038      -0.00000914      -0.00011778
Si       1.93428788       1.11676163      27.24360538      -0.00007048       0.00010761       0.00008014
Si       1.93428788       1.11676163       1.18450458      -0.00007965       0.00000049      -0.00010699
Si       1.93428788       3.35028489      20.92624761       0.00000219       0.00004404       0.00004321
Si       1.93428788       3.35028489      23.29525678       0.00002240       0.00000155      -0.00002995
Si       1.93428788       5.58380815      24.08492650      -0.00008752       0.00004785       0.00001267
Si       1.93428788       5.58380815      26.45393566      -0.00014309      -0.00007021       0.00001459
Si       3.86857576      13.40113956      20.92624761       0.00004517       0.00001542       0.00001300
Si       3.86857576      13.40113956      23.29525678       0.00000925       0.00005072       0.00004176
Si       3.86857576       2.23352326      24.08492650       0.00001021       0.00001680       0.00007248
Si       3.86857576       2.23352326      26.45393566      -0.00008532       0.00000031      -0.00000651
Si       3.86857576       4.46704652      27.24360538      -0.00009567      -0.00005040      -0.00006652
Si       3.86857576       4.46704652       1.18450458      -0.00007325       0.00004619       0.00007958
Si       5.80286365       1.11676163      27.24360538      -0.00004589       0.00006301      -0.00007342
Si       5.80286365       1.11676163       1.18450458      -0.00003510      -0.00001686       0.00006989
Si       5.80286365       3.35028489      20.92624761      -0.00000574       0.00003469      -0.00006936
Si       5.80286365       3.35028489      23.29525678      -0.00003544      -0.00003310      -0.00004469
Si       5.80286365       5.58380815      24.08492650      -0.00006824       0.00001140      -0.00001937
Si       5.80286365       5.58380815      26.45393566      -0.00005785       0.00009329      -0.00002840
Si       7.73715153      13.40113956      20.92624761       0.00002473       0.00000486       0.00000731
Si       7.73715153      13.40113956      23.29525678       0.00010335       0.00003767      -0.00004269
Si       7.73715153       2.23352326      24.08492650      -0.00000862       0.00000180      -0.00002422
Si       7.73715153       2.23352326      26.45393566       0.00011399      -0.00002293      -0.00002406
Si       7.73715153       4.46704652      27.24360538      -0.00010742       0.00004006       0.00008493
Si       7.73715153       4.46704652       1.18450458       0.00002812       0.00001823      -0.00016031
Si       9.67143941       1.11676163      27.24360538      -0.00003936      -0.00004656       0.00014720
Si       9.67143941       1.11676163       1.18450458      -0.00001075      -0.00001122      -0.00016815
Si       9.67143941       3.35028489      20.92624761       0.00001392       0.00000662       0.00009193
Si       9.67143941       3.35028489      23.29525678      -0.00005454       0.00003530      -0.00003756
Si       9.67143941       5.58380815      24.08492650      -0.00006470       0.00004209      -0.00001981
Si       9.67143941       5.58380815      26.45393566      -0.00009510       0.00000755       0.00003634
Si      11.60572729       6.70056978      20.92624761      -0.00004517       0.00001542       0.00001300
Si      11.60572729       6.70056978      23.29525678      -0.00000925       0.00005072       0.00004176
Si      11.60572729       8.93409304      24.08492650      -0.00001021       0.00001680       0.00007248
Si      11.60572729       8.93409304      26.45393566       0.00008532       0.00000031      -0.00000651
Si      11.60572729      11.16761630      27.24360538       0.00009567      -0.00005040      -0.00006652
Si       0.00000000      11.16761630       1.18450458       0.00007325       0.00004619       0.00007958
Si       1.93428788       7.81733141      27.24360538       0.00007048       0.00010761       0.00008014
Si       1.93428788       7.81733141       1.18450458       0.00007965       0.00000049      -0.00010699
Si       1.93428788      10.05085467      20.92624761      -0.00000219       0.00004404       0.00004321
Si       1.93428788      10.05085467      23.29525678      -0.00002240       0.00000155      -0.00002995
Si       1.93428788      12.28437793      24.08492650       0.00008752       0.00004785       0.00001267
Si       1.93428788      12.28437793      26.45393566       0.00014309      -0.00007021       0.00001459
Si       3.86857576       6.70056978      20.92624761      -0.00003048      -0.00000830       0.00002647
Si       3.86857576       6.70056978      23.29525678      -0.00004312       0.00006045      -0.00006822
Si       3.86857576       8.93409304      24.08492650       0.00002399       0.00001799      -0.00005469
Si       3.86857576       8.93409304      26.45393566       0.00012442       0.00008060       0.00004640
Si       3.86857576      11.16761630      27.24360538      -0.00000316       0.00013991       0.00011017
Si       3.86857576      11.16761630       1.18450458       0.00011038      -0.00000914      -0.00011778
Si       5.80286365       7.81733141      27.24360538       0.00003936      -0.00004656       0.00014720
Si       5.80286365       7.81733141       1.18450458       0.00001075      -0.00001122      -0.00016815
Si       5.80286365      10.05085467      20.92624761      -0.00001392       0.00000662       0.00009193
Si       5.80286365      10.05085467      23.29525678       0.00005454       0.00003530      -0.00003756
Si       5.80286365      12.28437793      24.08492650       0.00006470       0.00004209      -0.00001981
Si       5.80286365      12.28437793      26.45393566       0.00009510       0.00000755       0.00003634
Si       7.73715153       6.70056978      20.92624761      -0.00002473       0.00000486       0.00000731
Si       7.73715153       6.70056978      23.29525678      -0.00010335       0.00003767      -0.00004269
Si       7.73715153       8.93409304      24.08492650       0.00000862       0.00000180      -0.00002422
Si       7.73715153       8.93409304      26.45393566      -0.00011399      -0.00002293      -0.00002406
Si       7.73715153      11.16761630      27.24360538       0.00010742       0.00004006       0.00008493
Si       7.73715153      11.16761630       1.18450458      -0.00002812       0.00001823      -0.00016031
Si       9.67143941       7.81733141      27.24360538       0.00004589       0.00006301      -0.00007342
Si       9.67143941       7.81733141       1.18450458       0.00003510      -0.00001686       0.00006989
Si       9.67143941      10.05085467      20.92624761       0.00000574       0.00003469      -0.00006936
Si       9.67143941      10.05085467      23.29525678       0.00003544      -0.00003310      -0.00004469
Si       9.67143941      12.28437793      24.08492650       0.00006824       0.00001140      -0.00001937
Si       9.67143941      12.28437793      26.45393566       0.00005785       0.00009329      -0.00002840
Si      11.60572729      13.40113956       1.97417430      -0.00001075       0.00003134       0.00000827
Si      11.60572729      13.40113956       4.34318347      -0.00004326       0.00000099      -0.00003697
Si      11.60572729       2.23352326       5.13285319      -0.00003813      -0.00007117      -0.00000537
Si      11.60572729       2.23352326       7.50186235      -0.00000439      -0.00001729      -0.00000041
Si      11.60572729       4.46704652       8.29153207       0.00000988      -0.00005293      -0.00007453
Si       0.00000000       4.46704652      10.66054124      -0.00000356      -0.00003267      -0.00002086
Si       1.93428788       1.11676163       8.29153207      -0.00005565      -0.00003361      -0.00001239
Si       1.93428788       1.11676163      10.66054124       0.00001397      -0.00003054       0.00003168
Si       1.93428788       3.35028489       1.97417430      -0.00006635      -0.00008944       0.00000418
Si       1.93428788       3.35028489       4.34318347      -0.00006110      -0.00000787      -0.00002559
Si       1.93428788       5.58380815       5.13285319       0.00007838      -0.00002158       0.00001267
Si       1.93428788       5.58380815       7.50186235       0.00001246      -0.00000811       0.00003211
Si       3.86857576      13.40113956       1.97417430      -0.00009786       0.00004801      -0.00002480
Si       3.86857576      13.40113956       4.34318347      -0.00005979      -0.00001242       0.00003186
Si       3.86857576       2.23352326       5.13285319      -0.00000791       0.00006170       0.00002660
Si       3.86857576       2.23352326       7.50186235      -0.00004404      -0.00003682       0.00003252
Si       3.86857576       4.46704652       8.29153207      -0.00000235       0.00002907       0.00002668
Si       3.86857576       4.46704652      10.66054124      -0.00000550      -0.00003140      -0.00004527
Si       5.80286365       1.11676163       8.29153207       0.00003475      -0.00006418      -0.00000448
Si       5.80286365       1.11676163      10.66054124       0.00001243      -0.00002521      -0.00002277
Si       5.80286365       3.35028489       1.97417430      -0.00000682       0.00006762      -0.00012200
Si       5.80286365       3.35028489       4.34318347       0.00001315       0.00000291      -0.00000032
Si       5.80286365       5.58380815       5.13285319      -0.00001162       0.00003185      -0.00000620
Si       5.80286365       5.58380815       7.50186235       0.00003209       0.00000106      -0.00003085
Si       7.73715153      13.40113956       1.97417430       0.00000483      -0.00008290       0.00000451
Si       7.73715153      13.40113956       4.34318347      -0.00004399      -0.00003317      -0.00002477
Si       7.73715153       2.23352326       5.13285319       0.00000271      -0.00001783      -0.00000125
Si       7.73715153       2.23352326       7.50186235       0.00007865      -0.00000572       0.00000348
Si       7.73715153       4.46704652       8.29153207       0.00005888      -0.00001226       0.00001273
Si       7.73715153       4.46704652      10.66054124      -0.00000048      -0.00003315       0.00003015
Si       9.67143941       1.11676163       8.29153207       0.00003705      -0.00000868      -0.00003445
Si       9.67143941       1.11676163      10.66054124       0.00001504      -0.00004810      -0.00002183
Si       9.67143941       3.35028489       1.97417430      -0.00013729       0.00001714       0.00008587
Si       9.67143941       3.35028489       4.34318347      -0.00002918      -0.00000160       0.00001564
Si       9.67143941       5.58380815       5.13285319      -0.00001140      -0.00004804       0.00000814
Si       9.67143941       5.58380815       7.50186235       0.00000281      -0.00005004       0.00006255
Si      11.60572729       6.70056978       1.97417430       0.00009786       0.00004801      -0.00002480
Si      11.60572729       6.70056978       4.34318347       0.00005979      -0.00001242       0.00003186
Si      11.60572729       8.93409304       5.13285319       0.00000791       0.00006170       0.00002660
Si      11.60572729       8.93409304       7.50186235       0.00004404      -0.00003682       0.00003252
Si      11.60572729      11.16761630       8.29153207       0.00000235       0.00002907       0.00002668
Si       0.00000000      11.16761630      10.66054124       0.00000550      -0.00003140      -0.00004527
Si       1.93428788       7.81733141       8.29153207       0.00005565      -0.00003361      -0.00001239
Si       1.93428788       7.81733141      10.66054124      -0.00001397      -0.00003054       0.00003168
Si       1.93428788      10.05085467       1.97417430       0.00006635      -0.00008944       0.00000418
Si       1.93428788      10.05085467       4.34318347       0.00006110      -0.00000787      -0.00002559
Si       1.93428788      12.28437793       5.13285319      -0.00007838      -0.00002158       0.00001267
Si       1.93428788      12.28437793       7.50186235      -0.00001246      -0.00000811       0.00003211
Si       3.86857576       6.70056978       1.97417430       0.00001075       0.00003134       0.00000827
Si       3.86857576       6.70056978       4.34318347       0.00004326       0.00000099      -0.00003697
Si       3.86857576       8.93409304       5.13285319       0.00003813      -0.00007117      -0.00000537
Si       3.86857576       8.93409304       7.50186235       0.00000439      -0.00001729      -0.00000041
Si       3.86857576      11.16761630       8.29153207      -0.00000988      -0.00005293      -0.00007453
Si       3.86857576      11.16761630      10.66054124       0.00000356      -0.00003267      -0.00002086
Si       5.80286365       7.81733141       8.29153207      -0.00003705      -0.00000868      -0.00003445
Si       5.80286365       7.81733141      10.66054124      -0.00001504      -0.00004810      -0.00002183
Si       5.80286365      10.05085467       1.97417430       0.00013729       0.00001714       0.00008587
Si       5.80286365      10.05085467       4.34318347       0.00002918      -0.00000160       0.00001564
Si       5.80286365      12.28437793       5.13285319       0.00001140      -0.00004804       0.00000814
Si       5.80286365      12.28437793       7.50186235      -0.00000281      -0.00005004       0.00006255
Si       7.73715153       6.70056978       1.97417430      -0.00000483      -0.00008290       0.00000451
Si       7.73715153       6.70056978       4.34318347       0.00004399      -0.00003317      -0.00002477
Si       7.73715153       8.93409304       5.13285319      -0.00000271      -0.00001783      -0.00000125
Si       7.73715153       8.93409304       7.50186235      -0.00007865      -0.00000572       0.00000348
Si       7.73715153      11.16761630       8.29153207      -0.00005888      -0.00001226       0.00001273
Si       7.73715153      11.16761630      10.66054124       0.00000048      -0.00003315       0.00003015
Si       9.67143941       7.81733141       8.29153207      -0.00003475      -0.00006418      -0.00000448
Si       9.67143941       7.81733141      10.66054124      -0.00001243      -0.00002521      -0.00002277
Si       9.67143941      10.05085467       1.97417430       0.00000682       0.00006762      -0.00012200
Si       9.67143941      10.05085467       4.34318347      -0.00001315       0.00000291      -0.00000032
Si       9.67143941      12.28437793       5.13285319       0.00001162       0.00003185      -0.00000620
Si       9.67143941      12.28437793       7.50186235      -0.00003209       0.00000106      -0.00003085
Si      11.60572729      13.40113956      11.45021096       0.00000032      -0.00004267      -0.00002864
Si      11.60572729      13.40113956      13.81922012      -0.00001334      -0.00003564       0.00001443
Si      11.60572729       2.23352326      14.60888984       0.00001288       0.00000533      -0.00001151
Si      11.60572729       2.23352326      16.97789901       0.00000053       0.00007266      -0.00004873
Si      11.60572729       4.46704652      17.76756873      -0.00000018       0.00004012      -0.00000963
Si       0.00000000       4.46704652      20.13657789      -0.00000997       0.00004934      -0.00003658
Si       1.93428788       1.11676163      17.76756873       0.00002148       0.00002174       0.00000845
Si       1.93428788       1.11676163      20.13657789       0.00006843       0.00001517       0.00005336
Si       1.93428788       3.35028489      11.45021096       0.00001839      -0.00003718       0.00005096
Si       1.93428788       3.35028489      13.81922012       0.00001431       0.00000580       0.00003580
Si       1.93428788       5.58380815      14.60888984      -0.00004332       0.00000570       0.00001712
Si       1.93428788       5.58380815      16.97789901      -0.00005490       0.00000137      -0.00001591
Si       3.86857576      13.40113956      11.45021096      -0.00000055      -0.00001394       0.00010655
Si       3.86857576      13.40113956      13.81922012       0.00001224      -0.00000710       0.00002291
Si       3.86857576       2.23352326      14.60888984      -0.00002718      -0.00004497       0.00003824
Si       3.86857576       2.23352326      16.97789901      -0.00001517      -0.00001247      -0.00002122
Si       3.86857576       4.46704652      17.76756873      -0.00000814       0.00000059       0.00000312
Si       3.86857576       4.46704652      20.13657789       0.00001265       0.00001225       0.00007156
Si       5.80286365       1.11676163      17.76756873      -0.00000992      -0.00001586      -0.00007680
Si       5.80286365       1.11676163      20.13657789       0.00002925      -0.00006895       0.00001911
Si       5.80286365       3.35028489      11.45021096       0.00000294       0.00000263      -0.00000838
Si       5.80286365       3.35028489      13.81922012      -0.00004346      -0.00001944      -0.00000223
B        5.80286365       5.58380815      14.60888984       0.00002899      -0.00002115      -0.00001173
Si       5.80286365       5.58380815      16.97789901       0.00003496       0.00000859      -0.00003959
Si       7.73715153      13.40113956      11.45021096       0.00003209      -0.00004215       0.00002597
Si       7.73715153      13.40113956      13.81922012       0.00000123      -0.00000604       0.00001061
Si       7.73715153       2.23352326      14.60888984      -0.00001521       0.00000023      -0.00000599
Si       7.73715153       2.23352326      16.97789901       0.00003205       0.00000408      -0.00005283
Si       7.73715153       4.46704652      17.76756873       0.00003268       0.00000626      -0.00001746
Si       7.73715153       4.46704652      20.13657789       0.00000921       0.00000210       0.00001997
Si       9.67143941       1.11676163      17.76756873       0.00000714       0.00003082       0.00002241
Si       9.67143941       1.11676163      20.13657789       0.00001086       0.00006281       0.00002814
Si       9.67143941       3.35028489      11.45021096      -0.00001659      -0.00007550       0.00007166
Si       9.67143941       3.35028489      13.81922012      -0.00000094      -0.00003559       0.00005643
Si       9.67143941       5.58380815      14.60888984       0.00000931      -0.00002141       0.00001501
Si       9.67143941       5.58380815      16.97789901       0.00004401      -0.00002029      -0.00003444
Si      11.60572729       6.70056978      11.45021096       0.00000055      -0.00001394       0.00010655
Si      11.60572729       6.70056978      13.81922012      -0.00001224      -0.00000710       0.00002291
Si      11.60572729       8.93409304      14.60888984       0.00002718      -0.00004497       0.00003824
Si      11.60572729       8.93409304      16.97789901       0.00001517      -0.00001247      -0.00002122
Si      11.60572729      11.16761630      17.76756873       0.00000814       0.00000059       0.00000312
Si       0.00000000      11.16761630      20.13657789      -0.00001265       0.00001225       0.00007156
Si       1.93428788       7.81733141      17.76756873      -0.00002148       0.00002174       0.00000845
Si       1.93428788       7.81733141      20.13657789      -0.00006843       0.00001517       0.00005336
Si       1.93428788      10.05085467      11.45021096      -0.00001839      -0.00003718       0.00005096
Si       1.93428788      10.05085467      13.81922012      -0.00001431       0.00000580       0.00003580
Si       1.93428788      12.28437793      14.60888984       0.00004332       0.00000570       0.00001712
Si       1.93428788      12.28437793      16.97789901       0.00005490       0.00000137      -0.00001591
Si       3.86857576       6.70056978      11.45021096      -0.00000032      -0.00004267      -0.00002864
Si       3.86857576       6.70056978      13.81922012       0.00001334      -0.00003564       0.00001443
Si       3.86857576       8.93409304      14.60888984      -0.00001288       0.00000533      -0.00001151
Si       3.86857576       8.93409304      16.97789901      -0.00000053       0.00007266      -0.00004873
Si       3.86857576      11.16761630      17.76756873       0.00000018       0.00004012      -0.00000963
Si       3.86857576      11.16761630      20.13657789       0.00000997       0.00004934      -0.00003658
Si       5.80286365       7.81733141      17.76756873      -0.00000714       0.00003082       0.00002241
Si       5.80286365       7.81733141      20.13657789      -0.00001086       0.00006281       0.00002814
Si       5.80286365      10.05085467      11.45021096       0.00001659      -0.00007550       0.00007166
Si       5.80286365      10.05085467      13.81922012       0.00000094      -0.00003559       0.00005643
Si       5.80286365      12.28437793      14.60888984      -0.00000931      -0.00002141       0.00001501
Si       5.80286365      12.28437793      16.97789901      -0.00004401      -0.00002029      -0.00003444
Si       7.73715153       6.70056978      11.45021096      -0.00003209      -0.00004215       0.00002597
Si       7.73715153       6.70056978      13.81922012      -0.00000123      -0.00000604       0.00001061
Si       7.73715153       8.93409304      14.60888984       0.00001521       0.00000023      -0.00000599
Si       7.73715153       8.93409304      16.97789901      -0.00003205       0.00000408      -0.00005283
Si       7.73715153      11.16761630      17.76756873      -0.00003268       0.00000626      -0.00001746
Si       7.73715153      11.16761630      20.13657789      -0.00000921       0.00000210       0.00001997
Si       9.67143941       7.81733141      17.76756873       0.00000992      -0.00001586      -0.00007680
Si       9.67143941       7.81733141      20.13657789      -0.00002925      -0.00006895       0.00001911
Si       9.67143941      10.05085467      11.45021096      -0.00000294       0.00000263      -0.00000838
Si       9.67143941      10.05085467      13.81922012       0.00004346      -0.00001944      -0.00000223
Si       9.67143941      12.28437793      14.60888984      -0.00002899      -0.00002115      -0.00001173
Si       9.67143941      12.28437793      16.97789901      -0.00003496       0.00000859      -0.00003959
