216
Lattice="11.605727294873521 0.0 0.0 0.0 13.401139555673227 0.0 0.0 0.0 28.428109966331448" Properties=species:S:1:pos:R:3:forces:R:3:energies:R:1 energy=-1165.653064384222 stress="0.0038106988868769538 -2.3471061754166483e-17 1.24110368319034e-17 -2.3471061754166483e-17 0.003843444441556938 -2.9589518051445428e-05 1.24110368319034e-17 -2.9589518051445428e-05 0.004241809077925672" free_energy=-1165.653064384222 pbc="T T T"
Si      11.60506432      13.40031509      20.95944765       0.00004913      -0.00001037      -0.00008335      -5.39067381
Si      11.60498693       0.00164823      23.33496219      -0.00003897       0.00002502       0.00006001      -5.39476839
Si      11.59899676       2.23637719      24.12551271       0.00001272       0.00005342       0.00000220      -5.39942406
Si       0.01337099       2.22517124      26.48244367       0.00011305      -0.00007602      -0.00002230      -5.28398669
P       11.59009573       4.43933009      27.26403042      -0.00003495       0.00012263       0.00005659      -5.81813023
Si      11.60529929       4.46401053       1.16970636      -0.00000406      -0.00004493      -0.00011825      -5.33552242
Si       1.94484582       1.11355964      27.26066027      -0.00002167      -0.00000775      -0.00001695      -5.34336749
P        1.92496113       1.11950976       1.16896413      -0.00007869       0.00000292       0.00007031      -5.82209546
Si       1.93381292       3.34967906      20.95704077       0.00003460      -0.00006999      -0.00007187      -5.38970838
Si       1.92898906       3.35044801      23.33218134      -0.00004770      -0.00002810       0.00004009      -5.39014417
Si       1.93048786       5.58051181      24.12801242      -0.00003166      -0.00003684      -0.00004916      -5.39123842
Si       1.93327112       5.58329227      26.49436946       0.00006248       0.00001260      -0.00004222      -5.34168369
Si       3.86820996      13.39951185      20.95618944       0.00002405       0.00000677      -0.00003347      -5.38837831
Si       3.86940305      13.39492253      23.33234538       0.00002591       0.00001784      -0.00000869      -5.38527392
Si       3.86453757       2.22910368      24.12359115       0.00002236      -0.00002463      -0.00006315      -5.38944513
Si       3.86944370       2.23485812      26.49214008      -0.00005281      -0.00001580      -0.00008956      -5.39399381
Si       3.86044960       4.47240677      27.26053866      -0.00001113      -0.00006440       0.00003854      -5.39045572
Si       3.87093208       4.46982134       1.15999487       0.00000509       0.00003779      -0.00011455      -5.38379442
Si       5.79864591       1.10584070      27.26151635      -0.00000421       0.00009007       0.00008213      -5.39045617
Si       5.79601110       1.11498193       1.16137499       0.00000866       0.00007935      -0.00012116      -5.38368573
Si       5.80326508       3.34948561      20.95937057       0.00000419      -0.00014368      -0.00009343      -5.38798894
Si       5.80551036       3.35026215      23.33315844      -0.00003760       0.00001223       0.00006981      -5.39430549
Si       5.80291263       5.59253426      24.12413767       0.00004901      -0.00000640      -0.00008942      -5.40121079
Si       5.80120579       5.58705455      26.49406034      -0.00001557       0.00003139       0.00002421      -5.32767815
Si       7.73799493      13.40053414      20.95867206      -0.00003197      -0.00001150      -0.00000527      -5.38949844
Si       7.73682669      13.40078062      23.33528447       0.00005335      -0.00002118       0.00006648      -5.39028503
Si       7.75039687       2.23115535      24.12856312      -0.00002424       0.00001210       0.00005354      -5.39457724
Si       7.72849473       2.24091143      26.49298939      -0.00005607      -0.00000483       0.00005209      -5.34997020
Si       7.74580500       4.47033573      27.26308721       0.00000628       0.00000983       0.00002390      -5.34003094
P        7.75789414       4.47121573       1.17332765       0.00003952      -0.00000227       0.00015462      -5.81625097
P        9.68106958       1.14714042      27.26370886      -0.00007982      -0.00007551       0.00008372      -5.81103368
Si       9.66395522       1.12428752       1.16836744       0.00004761      -0.00003487      -0.00006826      -5.33795474
Si       9.67218138       3.34925998      20.95770010       0.00003344       0.00007713      -0.00002132      -5.39129312
Si       9.67511367       3.34772418      23.33588274       0.00001050      -0.00005437      -0.00000554      -5.38836550
Si       9.67478796       5.57480796      24.13344694       0.00000560      -0.00000723       0.00006315      -5.38522386
Si       9.66194676       5.58185802      26.49263791      -0.00003984      -0.00004597      -0.00005555      -5.35453699
Si       0.00036580       6.69894207      20.95618944      -0.00002405       0.00000677      -0.00003347      -5.38837831
Si      11.60490001       6.69435275      23.33234538      -0.00002591       0.00001784      -0.00000869      -5.38527392
Si       0.00403819       8.92967345      24.12359115      -0.00002236      -0.00002463      -0.00006315      -5.38944513
Si      11.60485936       8.93542790      26.49214008       0.00005281      -0.00001580      -0.00008956      -5.39399381
Si       0.00812616      11.17297655      27.26053866       0.00001113      -0.00006440       0.00003854      -5.39045572
Si      11.60337098      11.17039112       1.15999487      -0.00000509       0.00003779      -0.00011455      -5.38379442
Si       1.92372995       7.81412941      27.26066027       0.00002167      -0.00000775      -0.00001695      -5.34336749
P        1.94361464       7.82007954       1.16896413       0.00007869       0.00000292       0.00007031      -5.82209546
Si       1.93476285      10.05024884      20.95704077      -0.00003460      -0.00006999      -0.00007187      -5.38970838
Si       1.93958670      10.05101778      23.33218134       0.00004770      -0.00002810       0.00004009      -5.39014417
Si       1.93808790      12.28108159      24.12801242       0.00003166      -0.00003684      -0.00004916      -5.39123842
Si       1.93530465      12.28386205      26.49436946      -0.00006248       0.00001260      -0.00004222      -5.34168369
Si       3.86923874       6.69974531      20.95944765      -0.00004913      -0.00001037      -0.00008335      -5.39067381
Si       3.86931613       6.70221801      23.33496219       0.00003897       0.00002502       0.00006001      -5.39476839
Si       3.87530630       8.93694696      24.12551271      -0.00001272       0.00005342       0.00000220      -5.39942406
Si       3.85520477       8.92574102      26.48244367      -0.00011305      -0.00007602      -0.00002230      -5.28398669
P        3.88420733      11.13989987      27.26403042       0.00003495       0.00012263       0.00005659      -5.81813023
Si       3.86900377      11.16458031       1.16970636       0.00000406      -0.00004493      -0.00011825      -5.33552242
P        5.79323348       7.84771020      27.26370886       0.00007982      -0.00007551       0.00008372      -5.81103368
Si       5.81034784       7.82485730       1.16836744      -0.00004761      -0.00003487      -0.00006826      -5.33795474
Si       5.80212168      10.04982976      20.95770010      -0.00003344       0.00007713      -0.00002132      -5.39129312
Si       5.79918939      10.04829396      23.33588274      -0.00001050      -0.00005437      -0.00000554      -5.38836550
Si       5.79951510      12.27537773      24.13344694      -0.00000560      -0.00000723       0.00006315      -5.38522386
Si       5.81235630      12.28242780      26.49263791       0.00003984      -0.00004597      -0.00005555      -5.35453699
Si       7.73630813       6.69996436      20.95867206       0.00003197      -0.00001150      -0.00000527      -5.38949844
Si       7.73747637       6.70021084      23.33528447      -0.00005335      -0.00002118       0.00006648      -5.39028503
Si       7.72390619       8.93172513      24.12856312       0.00002424       0.00001210       0.00005354      -5.39457724
Si       7.74580833       8.94148121      26.49298939       0.00005607      -0.00000483       0.00005209      -5.34997020
Si       7.72849806      11.17090551      27.26308721      -0.00000628       0.00000983       0.00002390      -5.34003094
P        7.71640892      11.17178551       1.17332765      -0.00003952      -0.00000227       0.00015462      -5.81625097
Si       9.67565715       7.80641048      27.26151635       0.00000421       0.00009007       0.00008213      -5.39045617
Si       9.67829196       7.81555171       1.16137499      -0.00000866       0.00007935      -0.00012116      -5.38368573
Si       9.67103798      10.05005539      20.95937057      -0.00000419      -0.00014368      -0.00009343      -5.38798894
Si       9.66879270      10.05083193      23.33315844       0.00003760       0.00001223       0.00006981      -5.39430549
Si       9.67139043      12.29310404      24.12413767      -0.00004901      -0.00000640      -0.00008942      -5.40121079
Si       9.67309727      12.28762433      26.49406034       0.00001557       0.00003139       0.00002421      -5.32767815
Si      11.58204797      13.39290436       1.93665545      -0.00011552      -0.00000481       0.00000568      -5.34740669
Si       0.00032733       0.00268559       4.30230696       0.00000601       0.00001801      -0.00004888      -5.39229946
Si       0.00048913       2.23351101       5.09500491      -0.00000818       0.00000630      -0.00005870      -5.38984749
Si       0.00064915       2.23358040       7.47107650       0.00000837      -0.00000202       0.00002305      -5.38975418
Si       0.00071353       4.46753211       8.26717491       0.00007528      -0.00001984      -0.00004958      -5.38537471
Si       0.00021354       4.46719925      10.64288239      -0.00000236      -0.00001005       0.00005065      -5.38330266
Si       1.93428499       1.11696513       8.26802735      -0.00001532       0.00001217      -0.00001844      -5.38428683
Si       1.93431932       1.11678155      10.64372228       0.00002109      -0.00000331       0.00000022      -5.38351272
Si       1.93431137       3.36214797       1.93556415      -0.00005186       0.00000071      -0.00001138      -5.35278302
Si       1.93388785       3.34603528       4.30045785      -0.00009885      -0.00002997       0.00000614      -5.39234067
Si       1.93726003       5.58482505       5.09263611      -0.00001128       0.00000266      -0.00005991      -5.38975939
Si       1.93521206       5.58479859       7.46956926       0.00004296      -0.00001217       0.00006554      -5.38941337
Si       3.86333053       0.00010840       1.93228095      -0.00009412      -0.00001490       0.00003649      -5.35519854
Si       3.86080486       0.00258632       4.29687269      -0.00005772       0.00002027       0.00012024      -5.39182120
Si       3.86753884       2.23322003       5.09163965      -0.00003586      -0.00004746      -0.00005086      -5.38936680
Si       3.86793349       2.23337900       7.46894593       0.00001061       0.00002224       0.00008025      -5.38924555
Si       3.86919049       4.46724359       8.26731797       0.00009556       0.00002424      -0.00007911      -5.38490253
Si       3.86874967       4.46704363      10.64298748       0.00001199       0.00001390       0.00002534      -5.38333670
Si       5.80286247       1.11721288       8.26715848       0.00000354       0.00002540      -0.00006712      -5.38505817
Si       5.80284491       1.11691839      10.64288846       0.00003013      -0.00003344       0.00008300      -5.38330887
Si       5.79623011       3.34540446       1.94307833       0.00000031      -0.00000126       0.00002989      -5.34516485
Si       5.80851017       3.35403942       4.30605123       0.00007555       0.00003500       0.00005505      -5.38805919
Si       5.80605475       5.58463414       5.09383697       0.00004189       0.00009359      -0.00000315      -5.38978230
Si       5.80439499       5.58405794       7.47061602       0.00002547       0.00003790       0.00011102      -5.38944541
Si       7.72498595       0.01410673       1.93665562       0.00000369       0.00007642       0.00004464      -5.35344533
Si       7.73466645      13.39824532       4.30090814      -0.00001606       0.00002651       0.00003126      -5.39244020
Si       7.73879806       2.23524248       5.09426072       0.00006849       0.00003426       0.00000200      -5.38994849
Si       7.73779445       2.23474558       7.47065572       0.00009803       0.00000466       0.00004637      -5.38958304
Si       7.73811445       4.46765563       8.26829561       0.00005013      -0.00000567      -0.00003473      -5.38417606
Si       7.73739823       4.46723719      10.64393203       0.00010341       0.00001106       0.00001714      -5.38352855
Si       9.67158624       1.11716551       8.26805812      -0.00001282       0.00001263      -0.00003671      -5.38533775
Si       9.67147636       1.11685856      10.64343305       0.00002767       0.00003583       0.00001420      -5.38341467
Si       9.68224972       3.34772556       1.93365488       0.00005228      -0.00003227      -0.00002352      -5.35731887
Si       9.66967689       3.35261974       4.29793862       0.00005664       0.00001181      -0.00001922      -5.39596904
Si       9.67340055       5.58451810       5.09268859       0.00005579      -0.00007662      -0.00002300      -5.38961008
Si       9.67192676       5.58404464       7.46948663       0.00004122      -0.00000740       0.00000735      -5.38949844
Si       0.00524523       6.70067818       1.93228095       0.00009412      -0.00001490       0.00003649      -5.35519854
Si       0.00777090       6.70315610       4.29687269       0.00005772       0.00002027       0.00012024      -5.39182120
Si       0.00103692       8.93378981       5.09163965       0.00003586      -0.00004746      -0.00005086      -5.38936680
Si       0.00064228       8.93394878       7.46894593      -0.00001061       0.00002224       0.00008025      -5.38924555
Si      11.60511257      11.16781337       8.26731797      -0.00009556       0.00002424      -0.00007911      -5.38490253
Si      11.60555339      11.16761341      10.64298748      -0.00001199       0.00001390       0.00002534      -5.38333670
Si       1.93429078       7.81753491       8.26802735       0.00001532       0.00001217      -0.00001844      -5.38428683
Si       1.93425644       7.81735133      10.64372228      -0.00002109      -0.00000331       0.00000022      -5.38351272
Si       1.93426439      10.06271775       1.93556415       0.00005186       0.00000071      -0.00001138      -5.35278302
Si       1.93468792      10.04660506       4.30045785       0.00009885      -0.00002997       0.00000614      -5.39234067
Si       1.93131574      12.28539483       5.09263611       0.00001128       0.00000266      -0.00005991      -5.38975939
Si       1.93336370      12.28536837       7.46956926      -0.00004296      -0.00001217       0.00006554      -5.38941337
Si       3.89225509       6.69233459       1.93665545       0.00011552      -0.00000481       0.00000568      -5.34740669
Si       3.86824843       6.70325537       4.30230696      -0.00000601       0.00001801      -0.00004888      -5.39229946
Si       3.86808664       8.93408079       5.09500491       0.00000818       0.00000630      -0.00005870      -5.38984749
Si       3.86792661       8.93415018       7.47107650      -0.00000837      -0.00000202       0.00002305      -5.38975418
Si       3.86786224      11.16810189       8.26717491      -0.00007528      -0.00001984      -0.00004958      -5.38537471
Si       3.86836222      11.16776903      10.64288239       0.00000236      -0.00001005       0.00005065      -5.38330266
Si       5.80271682       7.81773529       8.26805812       0.00001282       0.00001263      -0.00003671      -5.38533775
Si       5.80282670       7.81742833      10.64343305      -0.00002767       0.00003583       0.00001420      -5.38341467
Si       5.79205334      10.04829534       1.93365488      -0.00005228      -0.00003227      -0.00002352      -5.35731887
Si       5.80462617      10.05318952       4.29793862      -0.00005664       0.00001181      -0.00001922      -5.39596904
Si       5.80090251      12.28508787       5.09268859      -0.00005579      -0.00007662      -0.00002300      -5.38961008
Si       5.80237630      12.28461442       7.46948663      -0.00004122      -0.00000740       0.00000735      -5.38949844
Si       7.74931711       6.71467651       1.93665562      -0.00000369       0.00007642       0.00004464      -5.35344533
Si       7.73963661       6.69767554       4.30090814       0.00001606       0.00002651       0.00003126      -5.39244020
Si       7.73550500       8.93581225       5.09426072      -0.00006849       0.00003426       0.00000200      -5.38994849
Si       7.73650861       8.93531536       7.47065572      -0.00009803       0.00000466       0.00004637      -5.38958304
Si       7.73618861      11.16822541       8.26829561      -0.00005013      -0.00000567      -0.00003473      -5.38417606
Si       7.73690483      11.16780697      10.64393203      -0.00010341       0.00001106       0.00001714      -5.38352855
Si       9.67144059       7.81778266       8.26715848      -0.00000354       0.00002540      -0.00006712      -5.38505817
Si       9.67145815       7.81748817      10.64288846      -0.00003013      -0.00003344       0.00008300      -5.38330887
Si       9.67807295      10.04597424       1.94307833      -0.00000031      -0.00000126       0.00002989      -5.34516485
Si       9.66579289      10.05460920       4.30605123      -0.00007555       0.00003500       0.00005505      -5.38805919
Si       9.66824831      12.28520392       5.09383697      -0.00004189       0.00009359      -0.00000315      -5.38978230
Si       9.66990807      12.28462772       7.47061602      -0.00002547       0.00003790       0.00011102      -5.38944541
Si       0.00005240      13.40109971      11.43977282      -0.00000062       0.00002694      -0.00002668      -5.38338846
Si      11.60563888      13.40079736      13.81586192      -0.00000979      -0.00002668       0.00004854      -5.38340831
Si       0.00005957       2.23317891      14.61193805      -0.00000132      -0.00000080      -0.00013164      -5.38341702
Si      11.60558178       2.23278188      16.98795786       0.00006683      -0.00001931       0.00003648      -5.38345268
Si      11.60560612       4.46627900      17.78367926      -0.00001247       0.00000096      -0.00008828      -5.38359231
Si      11.60545932       4.46598178      20.15869081      -0.00000488      -0.00006035      -0.00005154      -5.38526037
Si       1.93419763       1.11611008      17.78496086       0.00001794      -0.00004819      -0.00001379      -5.38335213
Si       1.93362887       1.11576790      20.16066574       0.00000219      -0.00001350       0.00002435      -5.38505766
Si       1.93441880       3.35026003      11.43967525      -0.00002007       0.00001189      -0.00004962      -5.38340504
Si       1.93437634       3.35006230      13.81583809       0.00000296       0.00000925       0.00004353      -5.38336399
Si       1.93433657       5.58354322      14.61209041       0.00000641      -0.00000671      -0.00008907      -5.38340612
Si       1.93437775       5.58320248      16.98819128       0.00006254      -0.00003464       0.00001785      -5.38336603
Si       3.86855812       0.00008265      11.43972844      -0.00000080      -0.00001336      -0.00007952      -5.38344579
Si       3.86860733      13.40092020      13.81591050      -0.00000636       0.00000935       0.00007161      -5.38335833
Si       3.86858374       2.23322372      14.61238307      -0.00001023       0.00001747      -0.00007095      -5.38335823
Si       3.86853995       2.23305451      16.98862973       0.00003013      -0.00001105       0.00002012      -5.38332266
Si       3.86863136       4.46657494      17.78518010       0.00001311      -0.00004911       0.00002565      -5.38337227
Si       3.86870583       4.46617974      20.16131160       0.00003478      -0.00002758       0.00005046      -5.38418759
Si       5.80292815       1.11632644      17.78513637       0.00002337      -0.00003786       0.00001514      -5.38327610
Si       5.80320538       1.11589788      20.16131434       0.00003697       0.00003094       0.00000920      -5.38471375
Si       5.80303956       3.35036496      11.43979591       0.00007187      -0.00001945       0.00000317      -5.38338184
Si       5.80285307       3.35002432      13.81600938      -0.00001022      -0.00000475       0.00008157      -5.38340076
Si       5.80292483       5.58347476      14.61240367       0.00001539       0.00000073      -0.00009315      -5.38335016
Si       5.80295034       5.58326874      16.98856822       0.00000442      -0.00003634       0.00005129      -5.38348993
Si       7.73707341       0.00010107      11.43988800      -0.00003583       0.00003441      -0.00003561      -5.38339665
Si       7.73719520      13.40103406      13.81601078      -0.00000701       0.00002680       0.00006798      -5.38340774
Si       7.73718975       2.23336115      14.61232450      -0.00000216       0.00002321      -0.00004328      -5.38335889
Si       7.73732019       2.23305946      16.98852084      -0.00005456       0.00003132       0.00007628      -5.38342252
Si       7.73735264       4.46652114      17.78539710       0.00006802       0.00000330      -0.00002634      -5.38331806
Si       7.73794120       4.46626314      20.16117933      -0.00001546      -0.00000870       0.00006085      -5.38535801
Si       9.67140981       1.11611488      17.78460437       0.00001495       0.00005457      -0.00003286      -5.38352251
Si       9.67167767       1.11606889      20.16008351       0.00005801       0.00008623       0.00006137      -5.38462242
Si       9.67160820       3.35043699      11.43982908       0.00008355       0.00001945      -0.00004750      -5.38338985
Si       9.67150921       3.35010829      13.81591830       0.00000007      -0.00001148       0.00004235      -5.38337000
Si       9.67137112       5.58362907      14.61210751      -0.00000375      -0.00000834      -0.00002707      -5.38341026
Si       9.67136395       5.58339243      16.98824389      -0.00001610       0.00002256       0.00006000      -5.38335538
Si       0.00001765       6.70065243      11.43972844       0.00000080      -0.00001336      -0.00007952      -5.38344579
Si      11.60569573       6.70035042      13.81591050       0.00000636       0.00000935       0.00007161      -5.38335833
Si      11.60571932       8.93379350      14.61238307       0.00001023       0.00001747      -0.00007095      -5.38335823
Si       0.00003581       8.93362428      16.98862973      -0.00003013      -0.00001105       0.00002012      -5.38332266
Si      11.60567170      11.16714472      17.78518010      -0.00001311      -0.00004911       0.00002565      -5.38337227
Si      11.60559723      11.16674951      20.16131160      -0.00003478      -0.00002758       0.00005046      -5.38418759
Si       1.93437813       7.81667986      17.78496086      -0.00001794      -0.00004819      -0.00001379      -5.38335213
Si       1.93494689       7.81633768      20.16066574      -0.00000219      -0.00001350       0.00002435      -5.38505766
Si       1.93415696      10.05082981      11.43967525       0.00002007       0.00001189      -0.00004962      -5.38340504
Si       1.93419943      10.05063207      13.81583809      -0.00000296       0.00000925       0.00004353      -5.38336399
Si       1.93423920      12.28411299      14.61209041      -0.00000641      -0.00000671      -0.00008907      -5.38340612
Si       1.93419802      12.28377226      16.98819128      -0.00006254      -0.00003464       0.00001785      -5.38336603
Si       3.86852337       6.70052993      11.43977282       0.00000062       0.00002694      -0.00002668      -5.38338846
Si       3.86866418       6.70022759      13.81586192       0.00000979      -0.00002668       0.00004854      -5.38340831
Si       3.86851619       8.93374869      14.61193805       0.00000132      -0.00000080      -0.00013164      -5.38341702
Si       3.86872128       8.93335166      16.98795786      -0.00006683      -0.00001931       0.00003648      -5.38345268
Si       3.86869694      11.16684878      17.78367926       0.00001247       0.00000096      -0.00008828      -5.38359231
Si       3.86884374      11.16655156      20.15869081       0.00000488      -0.00006035      -0.00005154      -5.38526037
Si       5.80289325       7.81668466      17.78460437      -0.00001495       0.00005457      -0.00003286      -5.38352251
Si       5.80262539       7.81663866      20.16008351      -0.00005801       0.00008623       0.00006137      -5.38462242
Si       5.80269486      10.05100677      11.43982908      -0.00008355       0.00001945      -0.00004750      -5.38338985
Si       5.80279385      10.05067807      13.81591830      -0.00000007      -0.00001148       0.00004235      -5.38337000
Si       5.80293194      12.28419885      14.61210751       0.00000375      -0.00000834      -0.00002707      -5.38341026
Si       5.80293911      12.28396221      16.98824389       0.00001610       0.00002256       0.00006000      -5.38335538
Si       7.73722965       6.70067085      11.43988800       0.00003583       0.00003441      -0.00003561      -5.38339665
Si       7.73710786       6.70046428      13.81601078       0.00000701       0.00002680       0.00006798      -5.38340774
Si       7.73711331       8.93393093      14.61232450       0.00000216       0.00002321      -0.00004328      -5.38335889
Si       7.73698287       8.93362923      16.98852084       0.00005456       0.00003132       0.00007628      -5.38342252
Si       7.73695042      11.16709092      17.78539710      -0.00006802       0.00000330      -0.00002634      -5.38331806
Si       7.73636186      11.16683292      20.16117933       0.00001546      -0.00000870       0.00006085      -5.38535801
Si       9.67137491       7.81689622      17.78513637      -0.00002337      -0.00003786       0.00001514      -5.38327610
Si       9.67109768       7.81646766      20.16131434      -0.00003697       0.00003094       0.00000920      -5.38471375
Si       9.67126350      10.05093474      11.43979591      -0.00007187      -0.00001945       0.00000317      -5.38338184
Si       9.67144999      10.05059410      13.81600938       0.00001022      -0.00000475       0.00008157      -5.38340076
Si       9.67137823      12.28404454      14.61240367      -0.00001539       0.00000073      -0.00009315      -5.38335016
Si       9.67135272      12.28383852      16.98856822      -0.00000442      -0.00003634       0.00005129      -5.38348993
