216
Lattice="11.605727294873521 0.0 0.0 0.0 13.401139555673227 0.0 0.0 0.0 28.428109966331448" Properties=species:S:1:pos:R:3:forces:R:3 energy=-1164.5273842401748 free_energy=-1164.5273842401748 pbc="T T T"
Si       0.00000000       0.00000000      20.92624761       0.00000968      -0.00002369       0.00002391
Si      11.60572729      13.40113956      23.29525678       0.00007510       0.00001459      -0.00004475
Si      11.60572729       2.23352326      24.08492650       0.00010204      -0.00003754      -0.00003243
Si      11.60572729       2.23352326      26.45393566      -0.00011587       0.00000843      -0.00003432
P       11.60572729       4.46704652      27.24360538       0.00002121      -0.00002313      -0.00007961
Si       0.00000000       4.46704652       1.18450458      -0.00008042       0.00003306       0.00008661
Si       1.93428788       1.11676163      27.24360538      -0.00001474       0.00003020      -0.00004439
P        1.93428788       1.11676163       1.18450458      -0.00004637       0.00003770      -0.00009053
Si       1.93428788       3.35028489      20.92624761       0.00006807      -0.00004876      -0.00006064
Si       1.93428788       3.35028489      23.29525678      -0.00003725       0.00000052      -0.00002673
Si       1.93428788       5.58380815      24.08492650      -0.00001034      -0.00005943       0.00004450
Si       1.93428788       5.58380815      26.45393566      -0.00013516       0.00003317      -0.00007039
Si       3.86857576      13.40113956      20.92624761      -0.00000338       0.00001415      -0.00001639
Si       3.86857576      13.40113956      23.29525678       0.00002364      -0.00008758      -0.00003343
Si       3.86857576       2.23352326      24.08492650       0.00001542      -0.00001201      -0.00001699
Si       3.86857576       2.23352326      26.45393566      -0.00007306       0.00005843       0.00003570
Si       3.86857576       4.46704652      27.24360538       0.00002829      -0.00003888      -0.00006994
Si       3.86857576       4.46704652       1.18450458      -0.00002806       0.00003697       0.00012242
Si       5.80286365       1.11676163      27.24360538      -0.00002928      -0.00005118      -0.00004474
Si       5.80286365       1.11676163       1.18450458       0.00006289      -0.00007142       0.00006580
Si       5.80286365       3.35028489      20.92624761       0.00005196       0.00003351      -0.00004986
Si       5.80286365       3.35028489      23.29525678       0.00009536       0.00007364       0.00006325
Si       5.80286365       5.58380815      24.08492650      -0.00005993      -0.00009643       0.00011424
Si       5.80286365       5.58380815      26.45393566       0.00003555      -0.00002688       0.00009829
Si       7.73715153      13.40113956      20.92624761       0.00005377       0.00004679       0.00002685
Si       7.73715153      13.40113956      23.29525678       0.00002210      -0.00001477      -0.00001707
Si       7.73715153       2.23352326      24.08492650      -0.00001632       0.00005667       0.00001265
Si       7.73715153       2.23352326      26.45393566       0.00000382       0.00002891       0.00014530
Si       7.73715153       4.46704652      27.24360538      -0.00009419      -0.00003115      -0.00009116
P        7.73715153       4.46704652       1.18450458       0.00000799      -0.00004653       0.00009820
P        9.67143941       1.11676163      27.24360538      -0.00003929       0.00000083       0.00004598
Si       9.67143941       1.11676163       1.18450458      -0.00003550       0.00004587      -0.00001424
Si       9.67143941       3.35028489      20.92624761       0.00007386      -0.00003144      -0.00001951
Si       9.67143941       3.35028489      23.29525678       0.00007081       0.00005473      -0.00003494
Si       9.67143941       5.58380815      24.08492650      -0.00002543      -0.00000833       0.00001314
Si       9.67143941       5.58380815      26.45393566       0.00000365      -0.00007136       0.00015099
Si      11.60572729       6.70056978      20.92624761       0.00000338       0.00001415      -0.00001639
Si      11.60572729       6.70056978      23.29525678      -0.00002364      -0.00008758      -0.00003343
Si      11.60572729       8.93409304      24.08492650      -0.00001542      -0.00001201      -0.00001699
Si      11.60572729       8.93409304      26.45393566       0.00007306       0.00005843       0.00003570
Si      11.60572729      11.16761630      27.24360538      -0.00002829      -0.00003888      -0.00006994
Si       0.00000000      11.16761630       1.18450458       0.00002806       0.00003697       0.00012242
Si       1.93428788       7.81733141      27.24360538       0.00001474       0.00003020      -0.00004439
P        1.93428788       7.81733141       1.18450458       0.00004637       0.00003770      -0.00009053
Si       1.93428788      10.05085467      20.92624761      -0.00006807      -0.00004876      -0.00006064
Si       1.93428788      10.05085467      23.29525678       0.00003725       0.00000052      -0.00002673
Si       1.93428788      12.28437793      24.08492650       0.00001034      -0.00005943       0.00004450
Si       1.93428788      12.28437793      26.45393566       0.00013516       0.00003317      -0.00007039
Si       3.86857576       6.70056978      20.92624761      -0.00000968      -0.00002369       0.00002391
Si       3.86857576       6.70056978      23.29525678      -0.00007510       0.00001459      -0.00004475
Si       3.86857576       8.93409304      24.08492650      -0.00010204      -0.00003754      -0.00003243
Si       3.86857576       8.93409304      26.45393566       0.00011587       0.00000843      -0.00003432
P        3.86857576      11.16761630      27.24360538      -0.00002121      -0.00002313      -0.00007961
Si       3.86857576      11.16761630       1.18450458       0.00008042       0.00003306       0.00008661
P        5.80286365       7.81733141      27.24360538       0.00003929       0.00000083       0.00004598
Si       5.80286365       7.81733141       1.18450458       0.00003550       0.00004587      -0.00001424
Si       5.80286365      10.05085467      20.92624761      -0.00007386      -0.00003144      -0.00001951
Si       5.80286365      10.05085467      23.29525678      -0.00007081       0.00005473      -0.00003494
Si       5.80286365      12.28437793      24.08492650       0.00002543      -0.00000833       0.00001314
Si       5.80286365      12.28437793      26.45393566      -0.00000365      -0.00007136       0.00015099
Si       7.73715153       6.70056978      20.92624761      -0.00005377       0.00004679       0.00002685
Si       7.73715153       6.70056978      23.29525678      -0.00002210      -0.00001477      -0.00001707
Si       7.73715153       8.93409304      24.08492650       0.00001632       0.00005667       0.00001265
Si       7.73715153       8.93409304      26.45393566      -0.00000382       0.00002891       0.00014530
Si       7.73715153      11.16761630      27.24360538       0.00009419      -0.00003115      -0.00009116
P        7.73715153      11.16761630       1.18450458      -0.00000799      -0.00004653       0.00009820
Si       9.67143941       7.81733141      27.24360538       0.00002928      -0.00005118      -0.00004474
Si       9.67143941       7.81733141       1.18450458      -0.00006289      -0.00007142       0.00006580
Si       9.67143941      10.05085467      20.92624761      -0.00005196       0.00003351      -0.00004986
Si       9.67143941      10.05085467      23.29525678      -0.00009536       0.00007364       0.00006325
Si       9.67143941      12.28437793      24.08492650       0.00005993      -0.00009643       0.00011424
Si       9.67143941      12.28437793      26.45393566      -0.00003555      -0.00002688       0.00009829
Si      11.60572729      13.40113956       1.97417430       0.00003888       0.00001522      -0.00003124
Si      11.60572729      13.40113956       4.34318347      -0.00017564      -0.00000103       0.00000791
Si      11.60572729       2.23352326       5.13285319      -0.00003712       0.00007019       0.00006514
Si      11.60572729       2.23352326       7.50186235      -0.00000029      -0.00001465       0.00001824
Si      11.60572729       4.46704652       8.29153207       0.00002153      -0.00004181      -0.00000449
Si       0.00000000       4.46704652      10.66054124       0.00001072       0.00003795       0.00001295
Si       1.93428788       1.11676163       8.29153207      -0.00002166       0.00004716      -0.00000692
Si       1.93428788       1.11676163      10.66054124       0.00003331       0.00007119       0.00001546
Si       1.93428788       3.35028489       1.97417430       0.00003087       0.00000664      -0.00005580
Si       1.93428788       3.35028489       4.34318347      -0.00005387       0.00003873      -0.00000124
Si       1.93428788       5.58380815       5.13285319       0.00007480      -0.00007425       0.00001917
Si       1.93428788       5.58380815       7.50186235       0.00005438       0.00002388       0.00003233
Si       3.86857576      13.40113956       1.97417430      -0.00003871      -0.00007287      -0.00014343
Si       3.86857576      13.40113956       4.34318347       0.00001766      -0.00008440       0.00004843
Si       3.86857576       2.23352326       5.13285319       0.00003510       0.00003467       0.00004661
Si       3.86857576       2.23352326       7.50186235      -0.00004203      -0.00002745      -0.00002403
Si       3.86857576       4.46704652       8.29153207       0.00011064      -0.00003348      -0.00000306
Si       3.86857576       4.46704652      10.66054124       0.00001271       0.00002612       0.00004922
Si       5.80286365       1.11676163       8.29153207       0.00003454       0.00001840       0.00000780
Si       5.80286365       1.11676163      10.66054124      -0.00000529       0.00001042       0.00001558
Si       5.80286365       3.35028489       1.97417430      -0.00005913       0.00003910      -0.00006677
Si       5.80286365       3.35028489       4.34318347      -0.00000141      -0.00001112      -0.00001789
Si       5.80286365       5.58380815       5.13285319       0.00001830      -0.00002855       0.00000965
Si       5.80286365       5.58380815       7.50186235       0.00008874       0.00002009       0.00001250
Si       7.73715153      13.40113956       1.97417430      -0.00003149       0.00000343      -0.00004544
Si       7.73715153      13.40113956       4.34318347      -0.00008501       0.00005982      -0.00007242
Si       7.73715153       2.23352326       5.13285319      -0.00003743       0.00000807       0.00004142
Si       7.73715153       2.23352326       7.50186235      -0.00003395      -0.00001485      -0.00000708
Si       7.73715153       4.46704652       8.29153207       0.00006259      -0.00005501      -0.00000955
Si       7.73715153       4.46704652      10.66054124      -0.00001277      -0.00002994       0.00002610
Si       9.67143941       1.11676163       8.29153207      -0.00003981       0.00002671      -0.00001439
Si       9.67143941       1.11676163      10.66054124      -0.00000288      -0.00000351       0.00000727
Si       9.67143941       3.35028489       1.97417430       0.00001699       0.00011385      -0.00000188
Si       9.67143941       3.35028489       4.34318347      -0.00004513       0.00002561      -0.00007852
Si       9.67143941       5.58380815       5.13285319       0.00014531       0.00007403      -0.00004221
Si       9.67143941       5.58380815       7.50186235       0.00007834       0.00001848       0.00002602
Si      11.60572729       6.70056978       1.97417430       0.00003871      -0.00007287      -0.00014343
Si      11.60572729       6.70056978       4.34318347      -0.00001766      -0.00008440       0.00004843
Si      11.60572729       8.93409304       5.13285319      -0.00003510       0.00003467       0.00004661
Si      11.60572729       8.93409304       7.50186235       0.00004203      -0.00002745      -0.00002403
Si      11.60572729      11.16761630       8.29153207      -0.00011064      -0.00003348      -0.00000306
Si       0.00000000      11.16761630      10.66054124      -0.00001271       0.00002612       0.00004922
Si       1.93428788       7.81733141       8.29153207       0.00002166       0.00004716      -0.00000692
Si       1.93428788       7.81733141      10.66054124      -0.00003331       0.00007119       0.00001546
Si       1.93428788      10.05085467       1.97417430      -0.00003087       0.00000664      -0.00005580
Si       1.93428788      10.05085467       4.34318347       0.00005387       0.00003873      -0.00000124
Si       1.93428788      12.28437793       5.13285319      -0.00007480      -0.00007425       0.00001917
Si       1.93428788      12.28437793       7.50186235      -0.00005438       0.00002388       0.00003233
Si       3.86857576       6.70056978       1.97417430      -0.00003888       0.00001522      -0.00003124
Si       3.86857576       6.70056978       4.34318347       0.00017564      -0.00000103       0.00000791
Si       3.86857576       8.93409304       5.13285319       0.00003712       0.00007019       0.00006514
Si       3.86857576       8.93409304       7.50186235       0.00000029      -0.00001465       0.00001824
Si       3.86857576      11.16761630       8.29153207      -0.00002153      -0.00004181      -0.00000449
Si       3.86857576      11.16761630      10.66054124      -0.00001072       0.00003795       0.00001295
Si       5.80286365       7.81733141       8.29153207       0.00003981       0.00002671      -0.00001439
Si       5.80286365       7.81733141      10.66054124       0.00000288      -0.00000351       0.00000727
Si       5.80286365      10.05085467       1.97417430      -0.00001699       0.00011385      -0.00000188
Si       5.80286365      10.05085467       4.34318347       0.00004513       0.00002561      -0.00007852
Si       5.80286365      12.28437793       5.13285319      -0.00014531       0.00007403      -0.00004221
Si       5.80286365      12.28437793       7.50186235      -0.00007834       0.00001848       0.00002602
Si       7.73715153       6.70056978       1.97417430       0.00003149       0.00000343      -0.00004544
Si       7.73715153       6.70056978       4.34318347       0.00008501       0.00005982      -0.00007242
Si       7.73715153       8.93409304       5.13285319       0.00003743       0.00000807       0.00004142
Si       7.73715153       8.93409304       7.50186235       0.00003395      -0.00001485      -0.00000708
Si       7.73715153      11.16761630       8.29153207      -0.00006259      -0.00005501      -0.00000955
Si       7.73715153      11.16761630      10.66054124       0.00001277      -0.00002994       0.00002610
Si       9.67143941       7.81733141       8.29153207      -0.00003454       0.00001840       0.00000780
Si       9.67143941       7.81733141      10.66054124       0.00000529       0.00001042       0.00001558
Si       9.67143941      10.05085467       1.97417430       0.00005913       0.00003910      -0.00006677
Si       9.67143941      10.05085467       4.34318347       0.00000141      -0.00001112      -0.00001789
Si       9.67143941      12.28437793       5.13285319      -0.00001830      -0.00002855       0.00000965
Si       9.67143941      12.28437793       7.50186235      -0.00008874       0.00002009       0.00001250
Si      11.60572729      13.40113956      11.45021096       0.00001938       0.00005602       0.00002709
Si      11.60572729      13.40113956      13.81922012       0.00003380       0.00003045       0.00001130
Si      11.60572729       2.23352326      14.60888984       0.00000402      -0.00000352       0.00005698
Si      11.60572729       2.23352326      16.97789901      -0.00001683      -0.00005731       0.00001642
Si      11.60572729       4.46704652      17.76756873       0.00004744       0.00001046      -0.00004452
Si       0.00000000       4.46704652      20.13657789       0.00010853       0.00003248       0.00000139
Si       1.93428788       1.11676163      17.76756873       0.00000608      -0.00001318      -0.00001347
Si       1.93428788       1.11676163      20.13657789       0.00001461      -0.00006407      -0.00000216
Si       1.93428788       3.35028489      11.45021096       0.00001346      -0.00000248       0.00004670
Si       1.93428788       3.35028489      13.81922012      -0.00003590       0.00002434      -0.00002607
Si       1.93428788       5.58380815      14.60888984      -0.00002483       0.00002122       0.00006816
Si       1.93428788       5.58380815      16.97789901       0.00001362       0.00001327      -0.00000805
Si       3.86857576      13.40113956      11.45021096       0.00001442       0.00003374       0.00002656
Si       3.86857576      13.40113956      13.81922012      -0.00000099       0.00000474      -0.00002504
Si       3.86857576       2.23352326      14.60888984      -0.00004230       0.00000939       0.00002410
Si       3.86857576       2.23352326      16.97789901      -0.00005876      -0.00003764      -0.00000767
Si       3.86857576       4.46704652      17.76756873      -0.00001244       0.00000328      -0.00002943
Si       3.86857576       4.46704652      20.13657789      -0.00000341       0.00002476      -0.00001522
Si       5.80286365       1.11676163      17.76756873      -0.00004927      -0.00001062      -0.00001798
Si       5.80286365       1.11676163      20.13657789      -0.00003395      -0.00005149       0.00001941
Si       5.80286365       3.35028489      11.45021096      -0.00000104       0.00000261      -0.00003158
Si       5.80286365       3.35028489      13.81922012      -0.00003030      -0.00000519      -0.00006975
Si       5.80286365       5.58380815      14.60888984      -0.00004631       0.00000290       0.00005313
Si       5.80286365       5.58380815      16.97789901      -0.00001752       0.00003126      -0.00000221
Si       7.73715153      13.40113956      11.45021096       0.00001316       0.00003220      -0.00003582
Si       7.73715153      13.40113956      13.81922012       0.00001546      -0.00004350      -0.00002273
Si       7.73715153       2.23352326      14.60888984      -0.00003232      -0.00002441      -0.00001468
Si       7.73715153       2.23352326      16.97789901       0.00002284      -0.00006540      -0.00001761
Si       7.73715153       4.46704652      17.76756873       0.00000397      -0.00001646      -0.00004296
Si       7.73715153       4.46704652      20.13657789       0.00006292       0.00005347       0.00001074
Si       9.67143941       1.11676163      17.76756873       0.00000859      -0.00004287       0.00001355
Si       9.67143941       1.11676163      20.13657789       0.00007684      -0.00000577       0.00004906
Si       9.67143941       3.35028489      11.45021096      -0.00001001      -0.00001558      -0.00002406
Si       9.67143941       3.35028489      13.81922012      -0.00000872      -0.00003190      -0.00003889
Si       9.67143941       5.58380815      14.60888984       0.00001519      -0.00000979       0.00000600
Si       9.67143941       5.58380815      16.97789901       0.00003555      -0.00000990      -0.00003193
Si      11.60572729       6.70056978      11.45021096      -0.00001442       0.00003374       0.00002656
Si      11.60572729       6.70056978      13.81922012       0.00000099       0.00000474      -0.00002504
Si      11.60572729       8.93409304      14.60888984       0.00004230       0.00000939       0.00002410
Si      11.60572729       8.93409304      16.97789901       0.00005876      -0.00003764      -0.00000767
Si      11.60572729      11.16761630      17.76756873       0.00001244       0.00000328      -0.00002943
Si       0.00000000      11.16761630      20.13657789       0.00000341       0.00002476      -0.00001522
Si       1.93428788       7.81733141      17.76756873      -0.00000608      -0.00001318      -0.00001347
Si       1.93428788       7.81733141      20.13657789      -0.00001461      -0.00006407      -0.00000216
Si       1.93428788      10.05085467      11.45021096      -0.00001346      -0.00000248       0.00004670
Si       1.93428788      10.05085467      13.81922012       0.00003590       0.00002434      -0.00002607
Si       1.93428788      12.28437793      14.60888984       0.00002483       0.00002122       0.00006816
Si       1.93428788      12.28437793      16.97789901      -0.00001362       0.00001327      -0.00000805
Si       3.86857576       6.70056978      11.45021096      -0.00001938       0.00005602       0.00002709
Si       3.86857576       6.70056978      13.81922012      -0.00003380       0.00003045       0.00001130
Si       3.86857576       8.93409304      14.60888984      -0.00000402      -0.00000352       0.00005698
Si       3.86857576       8.93409304      16.97789901       0.00001683      -0.00005731       0.00001642
Si       3.86857576      11.16761630      17.76756873      -0.00004744       0.00001046      -0.00004452
Si       3.86857576      11.16761630      20.13657789      -0.00010853       0.00003248       0.00000139
Si       5.80286365       7.81733141      17.76756873      -0.00000859      -0.00004287       0.00001355
Si       5.80286365       7.81733141      20.13657789      -0.00007684      -0.00000577       0.00004906
Si       5.80286365      10.05085467      11.45021096       0.00001001      -0.00001558      -0.00002406
Si       5.80286365      10.05085467      13.81922012       0.00000872      -0.00003190      -0.00003889
Si       5.80286365      12.28437793      14.60888984      -0.00001519      -0.00000979       0.00000600
Si       5.80286365      12.28437793      16.97789901      -0.00003555      -0.00000990      -0.00003193
Si       7.73715153       6.70056978      11.45021096      -0.00001316       0.00003220      -0.00003582
Si       7.73715153       6.70056978      13.81922012      -0.00001546      -0.00004350      -0.00002273
Si       7.73715153       8.93409304      14.60888984       0.00003232      -0.00002441      -0.00001468
Si       7.73715153       8.93409304      16.97789901      -0.00002284      -0.00006540      -0.00001761
Si       7.73715153      11.16761630      17.76756873      -0.00000397      -0.00001646      -0.00004296
Si       7.73715153      11.16761630      20.13657789      -0.00006292       0.00005347       0.00001074
Si       9.67143941       7.81733141      17.76756873       0.00004927      -0.00001062      -0.00001798
Si       9.67143941       7.81733141      20.13657789       0.00003395      -0.00005149       0.00001941
Si       9.67143941      10.05085467      11.45021096       0.00000104       0.00000261      -0.00003158
Si       9.67143941      10.05085467      13.81922012       0.00003030      -0.00000519      -0.00006975
Si       9.67143941      12.28437793      14.60888984       0.00004631       0.00000290       0.00005313
Si       9.67143941      12.28437793      16.97789901       0.00001752       0.00003126      -0.00000221
