8
Lattice="5.469351016177087 0.0 0.0 0.0 5.472633611565409 0.0 0.0 0.0 5.470992313871248" Properties=species:S:1:pos:R:3:forces:R:3 energy=-43.068471665855995 free_energy=-43.068471665855995 pbc="T T T"
Si       0.00000000       0.00000000       0.00000000      -0.00000000      -0.00000000      -0.00000000
Si       1.36733775       1.36815840       1.36774808      -0.00000000       0.00000000      -0.00000000
Si       0.00000000       2.73631681       2.73549616      -0.00000000      -0.00000000      -0.00000000
Si       1.36733775       4.10447521       4.10324424      -0.00000000       0.00000000       0.00000000
Si       2.73467551       0.00000000       2.73549616      -0.00000000       0.00000000      -0.00000000
Si       4.10201326       1.36815840       4.10324424       0.00000000       0.00000000       0.00000000
Si       2.73467551       2.73631681       0.00000000      -0.00000000      -0.00000000      -0.00000000
Si       4.10201326       4.10447521       1.36774808       0.00000000       0.00000000      -0.00000000
