8
Lattice="5.470992313871248 0.0 0.0 0.0 5.470992313871248 0.0 0.0 -0.0016412976941613743 5.470992313871248" Properties=species:S:1:pos:R:3:forces:R:3 energy=-43.06847528212819 free_energy=-43.06847528212819 pbc="T T T"
Si      -0.00009707      -0.00000000      -0.00000000      -0.00000000       0.00000000       0.00000000
Si       1.36784514       1.36733775       1.36774808       0.00000000      -0.00000000      -0.00000000
Si      -0.00009707       2.73467551       2.73549616      -0.00000000       0.00000000       0.00000000
Si       1.36784514       4.10201326       4.10324424       0.00000000      -0.00000000      -0.00000000
Si       2.73539909      -0.00082065       2.73549616      -0.00000000       0.00000000       0.00000000
Si       4.10334130       1.36651711       4.10324424       0.00000000      -0.00000000      -0.00000000
Si       2.73539909       2.73549616      -0.00000000      -0.00000000       0.00000000       0.00000000
Si       4.10334130       4.10283391       1.36774808       0.00000000      -0.00000000      -0.00000000
