8
Lattice="5.470992313871248 0.0 0.0 0.0 5.470992313871248 0.0 0.0 0.0016412976941613743 5.470992313871248" Properties=species:S:1:pos:R:3:forces:R:3 energy=-43.06847528212819 free_energy=-43.06847528212819 pbc="T T T"
Si       0.00009707      -0.00000000      -0.00000000       0.00000000      -0.00000000       0.00000000
Si       1.36765101       1.36815840       1.36774808      -0.00000000       0.00000000      -0.00000000
Si       0.00009707       2.73631681       2.73549616       0.00000000      -0.00000000       0.00000000
Si       1.36765101       4.10447521       4.10324424      -0.00000000      -0.00000000      -0.00000000
Si       2.73559322       0.00082065       2.73549616       0.00000000      -0.00000000       0.00000000
Si       4.10314717       1.36897905       4.10324424      -0.00000000      -0.00000000      -0.00000000
Si       2.73559322       2.73549616      -0.00000000       0.00000000       0.00000000       0.00000000
Si       4.10314717       4.10365456       1.36774808      -0.00000000       0.00000000      -0.00000000
