216
Lattice="11.605727294873521 0.0 0.0 0.0 13.401139555673227 0.0 0.0 0.0 28.428109966331448" Properties=species:S:1:pos:R:3:forces:R:3:energies:R:1 energy=-1163.3270259940725 stress="0.0005182994028093754 4.302356528974634e-17 -2.6288970071339368e-17 4.302356528974634e-17 0.0005197590187384409 2.6168025131530394e-08 -2.6288970071339368e-17 2.6168025131530394e-08 0.0005243579478372045" free_energy=-1163.3270259940725 pbc="T T T"
Si       0.00000000       0.00002164      20.92276864      -0.00000000       0.00005288      -0.00001741      -5.38303263
Si       0.00000000       0.00008468      23.29247226       0.00000000       0.00000310      -0.00000623      -5.38380673
Si       0.00000000       2.23383563      24.08224820      -0.00000000       0.00003651       0.00001764      -5.38343943
Si       0.00000000       2.23361872      26.45224828      -0.00000000       0.00001435       0.00002731      -5.38355670
Si       0.00000000       4.46709657      27.24287745       0.00000000       0.00001164       0.00001688      -5.38357747
Si       0.00000000       4.46707262       1.18466032      -0.00000000      -0.00000675      -0.00003157      -5.38357231
Si       1.93426013       1.11679308      27.24288332       0.00002342      -0.00000959       0.00001677      -5.38353465
Si       1.93427216       1.11678343       1.18465344       0.00003823       0.00000234       0.00000751      -5.38356081
Si       1.93580598       3.35162078      20.92223068       0.00000617       0.00007665       0.00002583      -5.38469286
Si       1.93451623       3.35059139      23.29173521       0.00000935       0.00003814      -0.00000927      -5.38364127
Si       1.93428454       5.58400183      24.08233756       0.00001148      -0.00000624       0.00002325      -5.38363553
Si       1.93424932       5.58387355      26.45230934       0.00001593      -0.00001718      -0.00002113      -5.38352916
Si       3.86921918       0.00047648      20.92247677      -0.00004178      -0.00002797      -0.00000768      -5.38347355
Si       3.86883569      13.40112030      23.29225006       0.00000112      -0.00000719       0.00001977      -5.38366086
Si       3.86869006       2.23366259      24.08248010       0.00001457       0.00001421       0.00003611      -5.38359261
Si       3.86857472       2.23354213      26.45237897       0.00002227       0.00001710       0.00001933      -5.38356506
Si       3.86853101       4.46707538      27.24282551       0.00002614      -0.00000098      -0.00000381      -5.38357790
Si       3.86852781       4.46704917       1.18451845       0.00004793      -0.00000657      -0.00001200      -5.38356355
Si       5.80286365       1.11672850      27.24286236       0.00000000       0.00002340       0.00002882      -5.38354742
Si       5.80286365       1.11669855       1.18457191       0.00000000       0.00005630       0.00003359      -5.38357910
Si       5.80286365       3.35142019      20.92304757       0.00000000      -0.00002653       0.00001584      -5.38570182
Si       5.80286365       3.35067321      23.29198884      -0.00000000      -0.00002001      -0.00005659      -5.38358883
Si       5.80286365       5.58389166      24.08252326      -0.00000000      -0.00003401       0.00002116      -5.38389542
Si       5.80286365       5.58383265      26.45244613      -0.00000000       0.00000563       0.00000322      -5.38354143
Si       7.73650811       0.00047648      20.92247677       0.00004178      -0.00002797      -0.00000768      -5.38347355
Si       7.73689161      13.40112030      23.29225006      -0.00000112      -0.00000719       0.00001977      -5.38366086
Si       7.73703723       2.23366259      24.08248010      -0.00001457       0.00001421       0.00003611      -5.38359261
Si       7.73715257       2.23354213      26.45237897      -0.00002227       0.00001710       0.00001933      -5.38356506
Si       7.73719629       4.46707538      27.24282551      -0.00002614      -0.00000098      -0.00000381      -5.38357790
Si       7.73719948       4.46704917       1.18451845      -0.00004793      -0.00000657      -0.00001200      -5.38356355
Si       9.67146717       1.11679308      27.24288332      -0.00002342      -0.00000959       0.00001677      -5.38353465
Si       9.67145513       1.11678343       1.18465344      -0.00003823       0.00000234       0.00000751      -5.38356081
Si       9.66992131       3.35162078      20.92223068      -0.00000617       0.00007665       0.00002583      -5.38469286
Si       9.67121106       3.35059139      23.29173521      -0.00000935       0.00003814      -0.00000927      -5.38364127
Si       9.67144276       5.58400183      24.08233756      -0.00001148      -0.00000624       0.00002325      -5.38363553
Si       9.67147798       5.58387355      26.45230934      -0.00001593      -0.00001718      -0.00002113      -5.38352916
Si       0.00000000       6.70046885      20.92150747      -0.00000000       0.00002880       0.00006583      -5.38378194
Si       0.00000000       6.70078653      23.29153009       0.00000000      -0.00002174       0.00003544      -5.38346683
Si       0.00000000       8.93397566      24.08258962       0.00000000       0.00000507       0.00002447      -5.38360412
Si       0.00000000       8.93407052      26.45248555       0.00000000      -0.00002738       0.00003065      -5.38355509
Si       0.00000000      11.16759706      27.24300222      -0.00000000       0.00000500      -0.00000126      -5.38353591
Si       0.00000000      11.16762288       1.18477394      -0.00000000      -0.00003549       0.00001418      -5.38355332
Si       1.93425192       7.81732779      27.24298029       0.00002987      -0.00001242      -0.00000228      -5.38357945
Si       1.93421440       7.81734550       1.18472025       0.00002475      -0.00002112      -0.00002388      -5.38357496
Si       1.93479086      10.04976925      20.92231813      -0.00001293      -0.00000881       0.00005581      -5.38352074
Si       1.93429109      10.05057812      23.29212917      -0.00000324      -0.00002420      -0.00001353      -5.38357348
Si       1.93438829      12.28430109      24.08259784       0.00000071      -0.00001522       0.00002674      -5.38342280
Si       1.93430350      12.28434387      26.45250131       0.00003315      -0.00000411       0.00003906      -5.38357256
Si       3.86908283       6.70033674      20.92288959       0.00002444      -0.00003097       0.00000006      -5.38574000
Si       3.86874486       6.70044556      23.29188555      -0.00002467       0.00000612      -0.00006420      -5.38352226
Si       3.86855875       8.93383866      24.08262207      -0.00000295       0.00000528      -0.00000130      -5.38365164
Si       3.86855393       8.93404427      26.45251091       0.00002679       0.00000306      -0.00001373      -5.38353835
Si       3.86856507      11.16756570      27.24303019       0.00000697       0.00001057       0.00001849      -5.38355284
Si       3.86855288      11.16758801       1.18478180       0.00001379       0.00002441      -0.00003621      -5.38355904
Si       5.80286365       7.81732552      27.24297745       0.00000000      -0.00001652      -0.00001472      -5.38358416
Si       5.80286365       7.81734036       1.18466802       0.00000000      -0.00001309      -0.00008070      -5.38355349
Si       5.80286365      10.04880035      20.92259555      -0.00000000      -0.00006707       0.00001068      -5.38490330
Si       5.80286365      10.05039753      23.29201100      -0.00000000      -0.00000019      -0.00003987      -5.38353553
Si       5.80286365      12.28410229      24.08262250       0.00000000      -0.00000942       0.00000745      -5.38353059
Si       5.80286365      12.28428216      26.45249981       0.00000000       0.00000709       0.00000399      -5.38356658
Si       7.73664446       6.70033674      20.92288959      -0.00002444      -0.00003097       0.00000006      -5.38574000
Si       7.73698243       6.70044556      23.29188555       0.00002467       0.00000612      -0.00006420      -5.38352226
Si       7.73716855       8.93383866      24.08262207       0.00000295       0.00000528      -0.00000130      -5.38365164
Si       7.73717336       8.93404427      26.45251091      -0.00002679       0.00000306      -0.00001373      -5.38353835
Si       7.73716223      11.16756570      27.24303019      -0.00000697       0.00001057       0.00001849      -5.38355284
Si       7.73717441      11.16758801       1.18478180      -0.00001379       0.00002441      -0.00003621      -5.38355904
Si       9.67147537       7.81732779      27.24298029      -0.00002987      -0.00001242      -0.00000228      -5.38357945
Si       9.67151289       7.81734550       1.18472025      -0.00002475      -0.00002112      -0.00002388      -5.38357496
Si       9.67093644      10.04976925      20.92231813       0.00001293      -0.00000881       0.00005581      -5.38352074
Si       9.67143621      10.05057812      23.29212917       0.00000324      -0.00002420      -0.00001353      -5.38357348
Si       9.67133900      12.28430109      24.08259784      -0.00000071      -0.00001522       0.00002674      -5.38342280
Si       9.67142379      12.28434387      26.45250131      -0.00003315      -0.00000411       0.00003906      -5.38357256
Si       0.00000000       0.00003857       1.97518641      -0.00000000       0.00001251      -0.00006708      -5.38356910
Si       0.00000000       0.00005558       4.34508755      -0.00000000       0.00001436       0.00003888      -5.38348390
Si       0.00000000       2.23363401       5.13562028       0.00000000       0.00002810      -0.00006351      -5.38349981
Si       0.00000000       2.23422283       7.50565613      -0.00000000      -0.00006224      -0.00006270      -5.38371603
Si       0.00000000       4.46747230       8.29663126       0.00000000       0.00001123      -0.00001491      -5.38406604
Si       0.00000000       4.46757884      10.66671523      -0.00000000      -0.00002330       0.00002440      -5.38297038
Si       1.93471949       1.11758741       8.29561556       0.00001459       0.00001718      -0.00001068      -5.38396222
Si       1.93573373       1.11920296      10.66522360      -0.00003274      -0.00003477      -0.00001721      -5.38327181
Si       1.93427779       3.35030866       1.97512275      -0.00000265       0.00001820      -0.00002651      -5.38354654
Si       1.93432362       3.35037638       4.34506879       0.00000093      -0.00000051       0.00005472      -5.38357297
Si       1.93438146       5.58373243       5.13586594       0.00001162       0.00000227      -0.00002626      -5.38350402
Si       1.93477589       5.58351253       7.50564546       0.00005262      -0.00001467      -0.00003472      -5.38412226
Si       3.86856513       0.00001397       1.97516991       0.00001640      -0.00001304      -0.00002356      -5.38355490
Si       3.86861841       0.00010438       4.34504970      -0.00001817       0.00002366       0.00001544      -5.38355817
Si       3.86864444       2.23375076       5.13554592       0.00000484       0.00001920       0.00004587      -5.38350400
Si       3.86902608       2.23429786       7.50520999      -0.00003991       0.00003648       0.00000851      -5.38421175
Si       3.86943626       4.46758414       8.29655558      -0.00000923      -0.00005408      -0.00000621      -5.38659226
Si       3.87303595       4.46973582      10.66859479      -0.00003750       0.00003786       0.00009885      -5.38335948
Si       5.80286365       1.11669603       8.29665632       0.00000000       0.00007771       0.00003068      -5.38511297
Si       5.80286365       1.12145057      10.66629586      -0.00000000      -0.00011181       0.00003202      -5.38850193
Si       5.80286365       3.35026178       1.97484683      -0.00000000      -0.00001129       0.00009463      -5.38355458
Si       5.80286365       3.35038981       4.34469056       0.00000000      -0.00000734       0.00003724      -5.38365157
Si       5.80286365       5.58377096       5.13488099       0.00000000      -0.00000799      -0.00000473      -5.38364983
Si       5.80286365       5.58372460       7.50397030       0.00000000       0.00005389       0.00010875      -5.38454415
Si       7.73716216       0.00001397       1.97516991      -0.00001640      -0.00001304      -0.00002356      -5.38355490
Si       7.73710888       0.00010438       4.34504970       0.00001817       0.00002366       0.00001544      -5.38355817
Si       7.73708286       2.23375076       5.13554592      -0.00000484       0.00001920       0.00004587      -5.38350400
Si       7.73670122       2.23429786       7.50520999       0.00003991       0.00003648       0.00000851      -5.38421175
Si       7.73629104       4.46758414       8.29655558       0.00000923      -0.00005408      -0.00000621      -5.38659226
Si       7.73269135       4.46973582      10.66859479       0.00003750       0.00003786       0.00009885      -5.38335948
Si       9.67100781       1.11758741       8.29561556      -0.00001459       0.00001718      -0.00001068      -5.38396222
Si       9.66999356       1.11920296      10.66522360       0.00003274      -0.00003477      -0.00001721      -5.38327181
Si       9.67144951       3.35030866       1.97512275       0.00000265       0.00001820      -0.00002651      -5.38354654
Si       9.67140368       3.35037638       4.34506879      -0.00000093      -0.00000051       0.00005472      -5.38357297
Si       9.67134583       5.58373243       5.13586594      -0.00001162       0.00000227      -0.00002626      -5.38350402
Si       9.67095141       5.58351253       7.50564546      -0.00005262      -0.00001467      -0.00003472      -5.38412226
Si       0.00000000       6.70053413       1.97535660       0.00000000      -0.00000002      -0.00007582      -5.38354373
Si       0.00000000       6.70046844       4.34530174      -0.00000000      -0.00003500      -0.00000109      -5.38360050
Si       0.00000000       8.93386013       5.13586640       0.00000000      -0.00001790      -0.00004482      -5.38365433
Si       0.00000000       8.93342301       7.50586150       0.00000000      -0.00003847      -0.00001099      -5.38318611
Si       0.00000000      11.16764097       8.29486048       0.00000000      -0.00003538      -0.00004928      -5.38416796
Si       0.00000000      11.16763836      10.66381087      -0.00000000       0.00003269       0.00000958      -5.38299706
Si       1.93424629       7.81701739       8.29685475      -0.00002585       0.00001170      -0.00001180      -5.38535011
Si       1.93803618       7.81456476      10.66642076      -0.00008872      -0.00000319      -0.00000683      -5.38809691
Si       1.93426462      10.05083780       1.97533241       0.00003169      -0.00001148      -0.00007416      -5.38355221
Si       1.93427446      10.05074049       4.34526370      -0.00000440      -0.00001181       0.00000158      -5.38349858
Si       1.93438742      12.28442821       5.13553326       0.00002437       0.00000613      -0.00006472      -5.38364190
Si       1.93460621      12.28472217       7.50536310      -0.00005782       0.00004005       0.00000184      -5.38319626
Si       3.86852138       6.70056643       1.97500681       0.00000995       0.00000792       0.00004823      -5.38356478
Si       3.86859671       6.70046094       4.34487625      -0.00000374       0.00000141       0.00002685      -5.38362688
Si       3.86870140       8.93388760       5.13566791       0.00002956      -0.00002539      -0.00004280      -5.38357664
Si       3.86893421       8.93326544       7.50532480       0.00003397      -0.00006201      -0.00000626      -5.38411785
Si       3.86884309      11.16699091       8.29559840      -0.00004784       0.00000281      -0.00002672      -5.38408994
Si       3.86993451      11.16561596      10.66516681      -0.00000378       0.00005160       0.00005481      -5.38306061
Si       5.80286365       7.81608838       8.29649110      -0.00000000       0.00000554      -0.00002882      -5.38663957
Si       5.80286365       7.81135815      10.66860268      -0.00000000      -0.00001266       0.00005937      -5.38331865
Si       5.80286365      10.05083799       1.97524217       0.00000000      -0.00000492      -0.00002858      -5.38355102
Si       5.80286365      10.05084196       4.34517863       0.00000000       0.00000288       0.00002412      -5.38352087
Si       5.80286365      12.28453556       5.13563163       0.00000000      -0.00000132      -0.00007427      -5.38356717
Si       5.80286365      12.28443030       7.50560334      -0.00000000       0.00004848       0.00000237      -5.38350329
Si       7.73720591       6.70056643       1.97500681      -0.00000995       0.00000792       0.00004823      -5.38356478
Si       7.73713058       6.70046094       4.34487625       0.00000374       0.00000141       0.00002685      -5.38362688
Si       7.73702590       8.93388760       5.13566791      -0.00002956      -0.00002539      -0.00004280      -5.38357664
Si       7.73679308       8.93326544       7.50532480      -0.00003397      -0.00006201      -0.00000626      -5.38411785
Si       7.73688421      11.16699091       8.29559840       0.00004784       0.00000281      -0.00002672      -5.38408994
Si       7.73579279      11.16561596      10.66516681       0.00000378       0.00005160       0.00005481      -5.38306061
Si       9.67148101       7.81701739       8.29685475       0.00002585       0.00001170      -0.00001180      -5.38535011
Si       9.66769111       7.81456476      10.66642076       0.00008872      -0.00000319      -0.00000683      -5.38809691
Si       9.67146267      10.05083780       1.97533241      -0.00003169      -0.00001148      -0.00007416      -5.38355221
Si       9.67145283      10.05074049       4.34526370       0.00000440      -0.00001181       0.00000158      -5.38349858
Si       9.67133987      12.28442821       5.13553326      -0.00002437       0.00000613      -0.00006472      -5.38364190
Si       9.67112108      12.28472217       7.50536310       0.00005782       0.00004005       0.00000184      -5.38319626
Si       0.00000000       0.00136484      11.45260150      -0.00000000       0.00000940       0.00000279      -5.38433488
Si       0.00000000       0.00037589      13.82109106       0.00000000       0.00004487       0.00006946      -5.38491323
Si       0.00000000       2.23551648      14.60911941      -0.00000000      -0.00000594      -0.00004174      -5.38914855
Si       0.00000000       2.23286136      16.97691553      -0.00000000       0.00008511      -0.00007657      -5.38612011
Si       0.00000000       4.46733420      17.76293638      -0.00000000       0.00010463       0.00004901      -5.38903583
Si      11.60572729       4.46678462      20.13207021      -0.00000000      -0.00002172      -0.00007590      -5.38530883
Si       1.93578219       1.11789815      17.76419058      -0.00002683      -0.00003531       0.00001378      -5.38613327
Si       1.93457041       1.11719466      20.13299956      -0.00006776       0.00002236      -0.00004799      -5.38472634
Si       1.94002005       3.35471516      11.45798688       0.00001225       0.00002029      -0.00000235      -5.37962507
Si       1.93954508       3.35389148      13.82402163      -0.00001062       0.00000048       0.00000224      -5.38434456
Si       1.94143177       5.58117206      14.61045390       0.00003731      -0.00001761       0.00005995      -5.38441220
Si       1.93950125       5.58135212      16.97174067       0.00003237       0.00001962      -0.00001356      -5.38441098
Si       3.86935670      13.40037489      11.45270995      -0.00002464       0.00001652       0.00001688      -5.38614563
Si       3.86981130       0.00495084      13.82186827      -0.00002669      -0.00011910      -0.00000928      -5.38916951
Si       3.86975544       2.24305906      14.61107876      -0.00006408       0.00006876       0.00004142      -5.38281338
Si       3.86986250       2.24013177      16.97219471       0.00002709       0.00000235      -0.00003310      -5.38394733
Si       3.86967239       4.46834020      17.75525311      -0.00007567      -0.00002998      -0.00010662      -5.38278445
Si       3.86947158       4.46789627      20.12798535       0.00000906       0.00000252       0.00006897      -5.38861858
Si       5.80286365       1.12505540      17.76007688       0.00000000      -0.00002932      -0.00001388      -5.37920395
Si       5.80286365       1.11892166      20.13132027       0.00000000      -0.00001291      -0.00003190      -5.38367153
Si       5.80286365       3.35920879      11.45681751      -0.00000000       0.00009443       0.00005099      -5.38308631
Si       5.80286365       3.34416908      13.81792634       0.00000000      -0.00008154      -0.00001655      -5.36133583
P        5.80286365       5.58373614      14.60898208      -0.00000000       0.00001019       0.00001492      -5.81812246
Si       5.80286365       5.58394850      16.98267671      -0.00000000       0.00000005       0.00004125      -5.36192077
Si       7.73637060      13.40037489      11.45270995       0.00002464       0.00001652       0.00001688      -5.38614563
Si       7.73591599       0.00495084      13.82186827       0.00002669      -0.00011910      -0.00000928      -5.38916951
Si       7.73597185       2.24305906      14.61107876       0.00006408       0.00006876       0.00004142      -5.38281338
Si       7.73586479       2.24013177      16.97219471      -0.00002709       0.00000235      -0.00003310      -5.38394733
Si       7.73605491       4.46834020      17.75525311       0.00007567      -0.00002998      -0.00010662      -5.38278445
Si       7.73625572       4.46789627      20.12798535      -0.00000906       0.00000252       0.00006897      -5.38861858
Si       9.66994510       1.11789815      17.76419058       0.00002683      -0.00003531       0.00001378      -5.38613327
Si       9.67115689       1.11719466      20.13299956       0.00006776       0.00002236      -0.00004799      -5.38472634
Si       9.66570724       3.35471516      11.45798688      -0.00001225       0.00002029      -0.00000235      -5.37962507
Si       9.66618222       3.35389148      13.82402163       0.00001062       0.00000048       0.00000224      -5.38434456
Si       9.66429552       5.58117206      14.61045390      -0.00003731      -0.00001761       0.00005995      -5.38441220
Si       9.66622605       5.58135212      16.97174067      -0.00003237       0.00001962      -0.00001356      -5.38441098
Si       0.00000000       6.70126642      11.45304771      -0.00000000       0.00003916       0.00003063      -5.38842832
Si       0.00000000       6.69676034      13.82278540      -0.00000000       0.00011985      -0.00004474      -5.39302429
Si       0.00000000       8.93373189      14.60752995       0.00000000      -0.00000910      -0.00005228      -5.38825560
Si       0.00000000       8.93081905      16.97479391      -0.00000000       0.00001429      -0.00000216      -5.38330165
Si      11.60572729      11.16610724      17.76419774       0.00000000       0.00007215       0.00000037      -5.38357704
Si      11.60572729      11.16685762      20.13299900       0.00000000       0.00003225       0.00002235      -5.38413151
Si       1.94000845       7.81319891      17.75920888       0.00000996      -0.00000737       0.00001914      -5.37939706
Si       1.93540522       7.81602690      20.13060737       0.00002015       0.00003221      -0.00000422      -5.38365771
Si       1.93405601      10.05026531      11.45258410      -0.00003461      -0.00002346       0.00001422      -5.38660925
Si       1.93823960      10.04752660      13.82156129      -0.00012243       0.00005876       0.00002635      -5.38820059
Si       1.93573380      12.28343076      14.60725877      -0.00004717       0.00002492      -0.00004640      -5.38645583
Si       1.93501441      12.28432080      16.97640897      -0.00002064       0.00003687      -0.00001100      -5.38525961
Si       3.87595037       6.69597913      11.45689062       0.00009368      -0.00006845      -0.00000097      -5.38344485
Si       3.86250120       6.70359601      13.81798803      -0.00003859      -0.00000182       0.00000294      -5.36059588
Si       3.87602209       8.92816680      14.61127070       0.00007445      -0.00004386       0.00006500      -5.38344516
Si       3.87322700       8.92994551      16.97231671      -0.00002045      -0.00005916      -0.00001296      -5.38341974
Si       3.87001625      11.16656532      17.76384875      -0.00005176       0.00001718       0.00001274      -5.38653719
Si       3.86912034      11.16765591      20.13282564      -0.00004165      -0.00005292      -0.00005123      -5.38461503
Si       5.80286365       7.81564038      17.75534847      -0.00000000      -0.00002016      -0.00010066      -5.38303099
Si       5.80286365       7.81613735      20.12805819      -0.00000000      -0.00001915       0.00004368      -5.38851290
Si       5.80286365      10.04294599      11.45771366       0.00000000      -0.00001665      -0.00000491      -5.37992978
Si       5.80286365      10.04426559      13.82368412      -0.00000000      -0.00004586      -0.00000305      -5.38335421
Si       5.80286365      12.28266815      14.60838238      -0.00000000       0.00002811      -0.00000142      -5.38871253
Si       5.80286365      12.28813028      16.97602520      -0.00000000      -0.00011068      -0.00002774      -5.38450788
Si       7.72977693       6.69597913      11.45689062      -0.00009368      -0.00006845      -0.00000097      -5.38344485
Si       7.74322610       6.70359601      13.81798803       0.00003859      -0.00000182       0.00000294      -5.36059588
Si       7.72970521       8.92816680      14.61127070      -0.00007445      -0.00004386       0.00006500      -5.38344516
Si       7.73250029       8.92994551      16.97231671       0.00002045      -0.00005916      -0.00001296      -5.38341974
Si       7.73571105      11.16656532      17.76384875       0.00005176       0.00001718       0.00001274      -5.38653719
Si       7.73660696      11.16765591      20.13282564       0.00004165      -0.00005292      -0.00005123      -5.38461503
Si       9.66571885       7.81319891      17.75920888      -0.00000996      -0.00000737       0.00001914      -5.37939706
Si       9.67032208       7.81602690      20.13060737      -0.00002015       0.00003221      -0.00000422      -5.38365771
Si       9.67167129      10.05026531      11.45258410       0.00003461      -0.00002346       0.00001422      -5.38660925
Si       9.66748770      10.04752660      13.82156129       0.00012243       0.00005876       0.00002635      -5.38820059
Si       9.66999350      12.28343076      14.60725877       0.00004717       0.00002492      -0.00004640      -5.38645583
Si       9.67071289      12.28432080      16.97640897       0.00002064       0.00003687      -0.00001100      -5.38525961
