216
Lattice="11.605727294873521 0.0 0.0 0.0 13.401139555673227 0.0 0.0 0.0 28.428109966331448" Properties=species:S:1:pos:R:3:forces:R:3 energy=-1165.6530643842223 free_energy=-1165.6530643842223 pbc="T T T"
Si       0.00000000       0.00000000      20.92624761       0.00004913      -0.00001037      -0.00008335
Si      11.60572729      13.40113956      23.29525678      -0.00003897       0.00002502       0.00006001
Si      11.60572729       2.23352326      24.08492650       0.00001272       0.00005342       0.00000220
Si      11.60572729       2.23352326      26.45393566       0.00011305      -0.00007602      -0.00002230
Si      11.60572729       4.46704652      27.24360538      -0.00003495       0.00012263       0.00005659
Si       0.00000000       4.46704652       1.18450458      -0.00000406      -0.00004493      -0.00011825
Si       1.93428788       1.11676163      27.24360538      -0.00002167      -0.00000775      -0.00001695
Si       1.93428788       1.11676163       1.18450458      -0.00007869       0.00000292       0.00007031
Si       1.93428788       3.35028489      20.92624761       0.00003460      -0.00006999      -0.00007187
Si       1.93428788       3.35028489      23.29525678      -0.00004770      -0.00002810       0.00004009
Si       1.93428788       5.58380815      24.08492650      -0.00003166      -0.00003684      -0.00004916
Si       1.93428788       5.58380815      26.45393566       0.00006248       0.00001260      -0.00004222
Si       3.86857576      13.40113956      20.92624761       0.00002405       0.00000677      -0.00003347
Si       3.86857576      13.40113956      23.29525678       0.00002591       0.00001784      -0.00000869
Si       3.86857576       2.23352326      24.08492650       0.00002236      -0.00002463      -0.00006315
Si       3.86857576       2.23352326      26.45393566      -0.00005281      -0.00001580      -0.00008956
Si       3.86857576       4.46704652      27.24360538      -0.00001113      -0.00006440       0.00003854
Si       3.86857576       4.46704652       1.18450458       0.00000509       0.00003779      -0.00011455
Si       5.80286365       1.11676163      27.24360538      -0.00000421       0.00009007       0.00008213
Si       5.80286365       1.11676163       1.18450458       0.00000866       0.00007935      -0.00012116
Si       5.80286365       3.35028489      20.92624761       0.00000419      -0.00014368      -0.00009343
Si       5.80286365       3.35028489      23.29525678      -0.00003760       0.00001223       0.00006981
Si       5.80286365       5.58380815      24.08492650       0.00004901      -0.00000640      -0.00008942
Si       5.80286365       5.58380815      26.45393566      -0.00001557       0.00003139       0.00002421
Si       7.73715153      13.40113956      20.92624761      -0.00003197      -0.00001150      -0.00000527
Si       7.73715153      13.40113956      23.29525678       0.00005335      -0.00002118       0.00006648
Si       7.73715153       2.23352326      24.08492650      -0.00002424       0.00001210       0.00005354
Si       7.73715153       2.23352326      26.45393566      -0.00005607      -0.00000483       0.00005209
Si       7.73715153       4.46704652      27.24360538       0.00000628       0.00000983       0.00002390
Si       7.73715153       4.46704652       1.18450458       0.00003952      -0.00000227       0.00015462
Si       9.67143941       1.11676163      27.24360538      -0.00007982      -0.00007551       0.00008372
Si       9.67143941       1.11676163       1.18450458       0.00004761      -0.00003487      -0.00006826
Si       9.67143941       3.35028489      20.92624761       0.00003344       0.00007713      -0.00002132
Si       9.67143941       3.35028489      23.29525678       0.00001050      -0.00005437      -0.00000554
Si       9.67143941       5.58380815      24.08492650       0.00000560      -0.00000723       0.00006315
Si       9.67143941       5.58380815      26.45393566      -0.00003984      -0.00004597      -0.00005555
Si      11.60572729       6.70056978      20.92624761      -0.00002405       0.00000677      -0.00003347
Si      11.60572729       6.70056978      23.29525678      -0.00002591       0.00001784      -0.00000869
Si      11.60572729       8.93409304      24.08492650      -0.00002236      -0.00002463      -0.00006315
Si      11.60572729       8.93409304      26.45393566       0.00005281      -0.00001580      -0.00008956
Si      11.60572729      11.16761630      27.24360538       0.00001113      -0.00006440       0.00003854
Si       0.00000000      11.16761630       1.18450458      -0.00000509       0.00003779      -0.00011455
Si       1.93428788       7.81733141      27.24360538       0.00002167      -0.00000775      -0.00001695
Si       1.93428788       7.81733141       1.18450458       0.00007869       0.00000292       0.00007031
Si       1.93428788      10.05085467      20.92624761      -0.00003460      -0.00006999      -0.00007187
Si       1.93428788      10.05085467      23.29525678       0.00004770      -0.00002810       0.00004009
Si       1.93428788      12.28437793      24.08492650       0.00003166      -0.00003684      -0.00004916
Si       1.93428788      12.28437793      26.45393566      -0.00006248       0.00001260      -0.00004222
Si       3.86857576       6.70056978      20.92624761      -0.00004913      -0.00001037      -0.00008335
Si       3.86857576       6.70056978      23.29525678       0.00003897       0.00002502       0.00006001
Si       3.86857576       8.93409304      24.08492650      -0.00001272       0.00005342       0.00000220
Si       3.86857576       8.93409304      26.45393566      -0.00011305      -0.00007602      -0.00002230
Si       3.86857576      11.16761630      27.24360538       0.00003495       0.00012263       0.00005659
Si       3.86857576      11.16761630       1.18450458       0.00000406      -0.00004493      -0.00011825
Si       5.80286365       7.81733141      27.24360538       0.00007982      -0.00007551       0.00008372
Si       5.80286365       7.81733141       1.18450458      -0.00004761      -0.00003487      -0.00006826
Si       5.80286365      10.05085467      20.92624761      -0.00003344       0.00007713      -0.00002132
Si       5.80286365      10.05085467      23.29525678      -0.00001050      -0.00005437      -0.00000554
Si       5.80286365      12.28437793      24.08492650      -0.00000560      -0.00000723       0.00006315
Si       5.80286365      12.28437793      26.45393566       0.00003984      -0.00004597      -0.00005555
Si       7.73715153       6.70056978      20.92624761       0.00003197      -0.00001150      -0.00000527
Si       7.73715153       6.70056978      23.29525678      -0.00005335      -0.00002118       0.00006648
Si       7.73715153       8.93409304      24.08492650       0.00002424       0.00001210       0.00005354
Si       7.73715153       8.93409304      26.45393566       0.00005607      -0.00000483       0.00005209
Si       7.73715153      11.16761630      27.24360538      -0.00000628       0.00000983       0.00002390
Si       7.73715153      11.16761630       1.18450458      -0.00003952      -0.00000227       0.00015462
Si       9.67143941       7.81733141      27.24360538       0.00000421       0.00009007       0.00008213
Si       9.67143941       7.81733141       1.18450458      -0.00000866       0.00007935      -0.00012116
Si       9.67143941      10.05085467      20.92624761      -0.00000419      -0.00014368      -0.00009343
Si       9.67143941      10.05085467      23.29525678       0.00003760       0.00001223       0.00006981
Si       9.67143941      12.28437793      24.08492650      -0.00004901      -0.00000640      -0.00008942
Si       9.67143941      12.28437793      26.45393566       0.00001557       0.00003139       0.00002421
Si      11.60572729      13.40113956       1.97417430      -0.00011552      -0.00000481       0.00000568
Si      11.60572729      13.40113956       4.34318347       0.00000601       0.00001801      -0.00004888
Si      11.60572729       2.23352326       5.13285319      -0.00000818       0.00000630      -0.00005870
Si      11.60572729       2.23352326       7.50186235       0.00000837      -0.00000202       0.00002305
Si      11.60572729       4.46704652       8.29153207       0.00007528      -0.00001984      -0.00004958
Si       0.00000000       4.46704652      10.66054124      -0.00000236      -0.00001005       0.00005065
Si       1.93428788       1.11676163       8.29153207      -0.00001532       0.00001217      -0.00001844
Si       1.93428788       1.11676163      10.66054124       0.00002109      -0.00000331       0.00000022
Si       1.93428788       3.35028489       1.97417430      -0.00005186       0.00000071      -0.00001138
Si       1.93428788       3.35028489       4.34318347      -0.00009885      -0.00002997       0.00000614
Si       1.93428788       5.58380815       5.13285319      -0.00001128       0.00000266      -0.00005991
Si       1.93428788       5.58380815       7.50186235       0.00004296      -0.00001217       0.00006554
Si       3.86857576      13.40113956       1.97417430      -0.00009412      -0.00001490       0.00003649
Si       3.86857576      13.40113956       4.34318347      -0.00005772       0.00002027       0.00012024
Si       3.86857576       2.23352326       5.13285319      -0.00003586      -0.00004746      -0.00005086
Si       3.86857576       2.23352326       7.50186235       0.00001061       0.00002224       0.00008025
Si       3.86857576       4.46704652       8.29153207       0.00009556       0.00002424      -0.00007911
Si       3.86857576       4.46704652      10.66054124       0.00001199       0.00001390       0.00002534
Si       5.80286365       1.11676163       8.29153207       0.00000354       0.00002540      -0.00006712
Si       5.80286365       1.11676163      10.66054124       0.00003013      -0.00003344       0.00008300
Si       5.80286365       3.35028489       1.97417430       0.00000031      -0.00000126       0.00002989
Si       5.80286365       3.35028489       4.34318347       0.00007555       0.00003500       0.00005505
Si       5.80286365       5.58380815       5.13285319       0.00004189       0.00009359      -0.00000315
Si       5.80286365       5.58380815       7.50186235       0.00002547       0.00003790       0.00011102
Si       7.73715153      13.40113956       1.97417430       0.00000369       0.00007642       0.00004464
Si       7.73715153      13.40113956       4.34318347      -0.00001606       0.00002651       0.00003126
Si       7.73715153       2.23352326       5.13285319       0.00006849       0.00003426       0.00000200
Si       7.73715153       2.23352326       7.50186235       0.00009803       0.00000466       0.00004637
Si       7.73715153       4.46704652       8.29153207       0.00005013      -0.00000567      -0.00003473
Si       7.73715153       4.46704652      10.66054124       0.00010341       0.00001106       0.00001714
Si       9.67143941       1.11676163       8.29153207      -0.00001282       0.00001263      -0.00003671
Si       9.67143941       1.11676163      10.66054124       0.00002767       0.00003583       0.00001420
Si       9.67143941       3.35028489       1.97417430       0.00005228      -0.00003227      -0.00002352
Si       9.67143941       3.35028489       4.34318347       0.00005664       0.00001181      -0.00001922
Si       9.67143941       5.58380815       5.13285319       0.00005579      -0.00007662      -0.00002300
Si       9.67143941       5.58380815       7.50186235       0.00004122      -0.00000740       0.00000735
Si      11.60572729       6.70056978       1.97417430       0.00009412      -0.00001490       0.00003649
Si      11.60572729       6.70056978       4.34318347       0.00005772       0.00002027       0.00012024
Si      11.60572729       8.93409304       5.13285319       0.00003586      -0.00004746      -0.00005086
Si      11.60572729       8.93409304       7.50186235      -0.00001061       0.00002224       0.00008025
Si      11.60572729      11.16761630       8.29153207      -0.00009556       0.00002424      -0.00007911
Si       0.00000000      11.16761630      10.66054124      -0.00001199       0.00001390       0.00002534
Si       1.93428788       7.81733141       8.29153207       0.00001532       0.00001217      -0.00001844
Si       1.93428788       7.81733141      10.66054124      -0.00002109      -0.00000331       0.00000022
Si       1.93428788      10.05085467       1.97417430       0.00005186       0.00000071      -0.00001138
Si       1.93428788      10.05085467       4.34318347       0.00009885      -0.00002997       0.00000614
Si       1.93428788      12.28437793       5.13285319       0.00001128       0.00000266      -0.00005991
Si       1.93428788      12.28437793       7.50186235      -0.00004296      -0.00001217       0.00006554
Si       3.86857576       6.70056978       1.97417430       0.00011552      -0.00000481       0.00000568
Si       3.86857576       6.70056978       4.34318347      -0.00000601       0.00001801      -0.00004888
Si       3.86857576       8.93409304       5.13285319       0.00000818       0.00000630      -0.00005870
Si       3.86857576       8.93409304       7.50186235      -0.00000837      -0.00000202       0.00002305
Si       3.86857576      11.16761630       8.29153207      -0.00007528      -0.00001984      -0.00004958
Si       3.86857576      11.16761630      10.66054124       0.00000236      -0.00001005       0.00005065
Si       5.80286365       7.81733141       8.29153207       0.00001282       0.00001263      -0.00003671
Si       5.80286365       7.81733141      10.66054124      -0.00002767       0.00003583       0.00001420
Si       5.80286365      10.05085467       1.97417430      -0.00005228      -0.00003227      -0.00002352
Si       5.80286365      10.05085467       4.34318347      -0.00005664       0.00001181      -0.00001922
Si       5.80286365      12.28437793       5.13285319      -0.00005579      -0.00007662      -0.00002300
Si       5.80286365      12.28437793       7.50186235      -0.00004122      -0.00000740       0.00000735
Si       7.73715153       6.70056978       1.97417430      -0.00000369       0.00007642       0.00004464
Si       7.73715153       6.70056978       4.34318347       0.00001606       0.00002651       0.00003126
Si       7.73715153       8.93409304       5.13285319      -0.00006849       0.00003426       0.00000200
Si       7.73715153       8.93409304       7.50186235      -0.00009803       0.00000466       0.00004637
Si       7.73715153      11.16761630       8.29153207      -0.00005013      -0.00000567      -0.00003473
Si       7.73715153      11.16761630      10.66054124      -0.00010341       0.00001106       0.00001714
Si       9.67143941       7.81733141       8.29153207      -0.00000354       0.00002540      -0.00006712
Si       9.67143941       7.81733141      10.66054124      -0.00003013      -0.00003344       0.00008300
Si       9.67143941      10.05085467       1.97417430      -0.00000031      -0.00000126       0.00002989
Si       9.67143941      10.05085467       4.34318347      -0.00007555       0.00003500       0.00005505
Si       9.67143941      12.28437793       5.13285319      -0.00004189       0.00009359      -0.00000315
Si       9.67143941      12.28437793       7.50186235      -0.00002547       0.00003790       0.00011102
Si      11.60572729      13.40113956      11.45021096      -0.00000062       0.00002694      -0.00002668
Si      11.60572729      13.40113956      13.81922012      -0.00000979      -0.00002668       0.00004854
Si      11.60572729       2.23352326      14.60888984      -0.00000132      -0.00000080      -0.00013164
Si      11.60572729       2.23352326      16.97789901       0.00006683      -0.00001931       0.00003648
Si      11.60572729       4.46704652      17.76756873      -0.00001247       0.00000096      -0.00008828
Si       0.00000000       4.46704652      20.13657789      -0.00000488      -0.00006035      -0.00005154
Si       1.93428788       1.11676163      17.76756873       0.00001794      -0.00004819      -0.00001379
Si       1.93428788       1.11676163      20.13657789       0.00000219      -0.00001350       0.00002435
Si       1.93428788       3.35028489      11.45021096      -0.00002007       0.00001189      -0.00004962
Si       1.93428788       3.35028489      13.81922012       0.00000296       0.00000925       0.00004353
Si       1.93428788       5.58380815      14.60888984       0.00000641      -0.00000671      -0.00008907
Si       1.93428788       5.58380815      16.97789901       0.00006254      -0.00003464       0.00001785
Si       3.86857576      13.40113956      11.45021096      -0.00000080      -0.00001336      -0.00007952
Si       3.86857576      13.40113956      13.81922012      -0.00000636       0.00000935       0.00007161
Si       3.86857576       2.23352326      14.60888984      -0.00001023       0.00001747      -0.00007095
Si       3.86857576       2.23352326      16.97789901       0.00003013      -0.00001105       0.00002012
Si       3.86857576       4.46704652      17.76756873       0.00001311      -0.00004911       0.00002565
Si       3.86857576       4.46704652      20.13657789       0.00003478      -0.00002758       0.00005046
Si       5.80286365       1.11676163      17.76756873       0.00002337      -0.00003786       0.00001514
Si       5.80286365       1.11676163      20.13657789       0.00003697       0.00003094       0.00000920
Si       5.80286365       3.35028489      11.45021096       0.00007187      -0.00001945       0.00000317
Si       5.80286365       3.35028489      13.81922012      -0.00001022      -0.00000475       0.00008157
P        5.80286365       5.58380815      14.60888984       0.00001539       0.00000073      -0.00009315
Si       5.80286365       5.58380815      16.97789901       0.00000442      -0.00003634       0.00005129
Si       7.73715153      13.40113956      11.45021096      -0.00003583       0.00003441      -0.00003561
Si       7.73715153      13.40113956      13.81922012      -0.00000701       0.00002680       0.00006798
Si       7.73715153       2.23352326      14.60888984      -0.00000216       0.00002321      -0.00004328
Si       7.73715153       2.23352326      16.97789901      -0.00005456       0.00003132       0.00007628
Si       7.73715153       4.46704652      17.76756873       0.00006802       0.00000330      -0.00002634
Si       7.73715153       4.46704652      20.13657789      -0.00001546      -0.00000870       0.00006085
Si       9.67143941       1.11676163      17.76756873       0.00001495       0.00005457      -0.00003286
Si       9.67143941       1.11676163      20.13657789       0.00005801       0.00008623       0.00006137
Si       9.67143941       3.35028489      11.45021096       0.00008355       0.00001945      -0.00004750
Si       9.67143941       3.35028489      13.81922012       0.00000007      -0.00001148       0.00004235
Si       9.67143941       5.58380815      14.60888984      -0.00000375      -0.00000834      -0.00002707
Si       9.67143941       5.58380815      16.97789901      -0.00001610       0.00002256       0.00006000
Si      11.60572729       6.70056978      11.45021096       0.00000080      -0.00001336      -0.00007952
Si      11.60572729       6.70056978      13.81922012       0.00000636       0.00000935       0.00007161
Si      11.60572729       8.93409304      14.60888984       0.00001023       0.00001747      -0.00007095
Si      11.60572729       8.93409304      16.97789901      -0.00003013      -0.00001105       0.00002012
Si      11.60572729      11.16761630      17.76756873      -0.00001311      -0.00004911       0.00002565
Si       0.00000000      11.16761630      20.13657789      -0.00003478      -0.00002758       0.00005046
Si       1.93428788       7.81733141      17.76756873      -0.00001794      -0.00004819      -0.00001379
Si       1.93428788       7.81733141      20.13657789      -0.00000219      -0.00001350       0.00002435
Si       1.93428788      10.05085467      11.45021096       0.00002007       0.00001189      -0.00004962
Si       1.93428788      10.05085467      13.81922012      -0.00000296       0.00000925       0.00004353
Si       1.93428788      12.28437793      14.60888984      -0.00000641      -0.00000671      -0.00008907
Si       1.93428788      12.28437793      16.97789901      -0.00006254      -0.00003464       0.00001785
Si       3.86857576       6.70056978      11.45021096       0.00000062       0.00002694      -0.00002668
Si       3.86857576       6.70056978      13.81922012       0.00000979      -0.00002668       0.00004854
Si       3.86857576       8.93409304      14.60888984       0.00000132      -0.00000080      -0.00013164
Si       3.86857576       8.93409304      16.97789901      -0.00006683      -0.00001931       0.00003648
Si       3.86857576      11.16761630      17.76756873       0.00001247       0.00000096      -0.00008828
Si       3.86857576      11.16761630      20.13657789       0.00000488      -0.00006035      -0.00005154
Si       5.80286365       7.81733141      17.76756873      -0.00001495       0.00005457      -0.00003286
Si       5.80286365       7.81733141      20.13657789      -0.00005801       0.00008623       0.00006137
Si       5.80286365      10.05085467      11.45021096      -0.00008355       0.00001945      -0.00004750
Si       5.80286365      10.05085467      13.81922012      -0.00000007      -0.00001148       0.00004235
Si       5.80286365      12.28437793      14.60888984       0.00000375      -0.00000834      -0.00002707
Si       5.80286365      12.28437793      16.97789901       0.00001610       0.00002256       0.00006000
Si       7.73715153       6.70056978      11.45021096       0.00003583       0.00003441      -0.00003561
Si       7.73715153       6.70056978      13.81922012       0.00000701       0.00002680       0.00006798
Si       7.73715153       8.93409304      14.60888984       0.00000216       0.00002321      -0.00004328
Si       7.73715153       8.93409304      16.97789901       0.00005456       0.00003132       0.00007628
Si       7.73715153      11.16761630      17.76756873      -0.00006802       0.00000330      -0.00002634
Si       7.73715153      11.16761630      20.13657789       0.00001546      -0.00000870       0.00006085
Si       9.67143941       7.81733141      17.76756873      -0.00002337      -0.00003786       0.00001514
Si       9.67143941       7.81733141      20.13657789      -0.00003697       0.00003094       0.00000920
Si       9.67143941      10.05085467      11.45021096      -0.00007187      -0.00001945       0.00000317
Si       9.67143941      10.05085467      13.81922012       0.00001022      -0.00000475       0.00008157
Si       9.67143941      12.28437793      14.60888984      -0.00001539       0.00000073      -0.00009315
Si       9.67143941      12.28437793      16.97789901      -0.00000442      -0.00003634       0.00005129
