%block lattice_abc
10.862 10.862 10.862
90     90     90
%endblock lattice_abc

%block POSITIONS_FRAC
Si	0	0	0
Si	0	0.25	0.25
Si	0.25	0.25	0
Si	0.25	0	0.25
Si	0.375	0.125	0.375
Si	0.125	0.125	0.125
Si	0.125	0.375	0.375
Si	0.375	0.375	0.125
Si	0	0	0.5
Si	0	0.25	0.75
Si	0.25	0.25	0.5
Si	0.25	0	0.75
Si	0.375	0.125	0.875
Si	0.125	0.125	0.625
Si	0.125	0.375	0.875
Si	0.375	0.375	0.625
Si	0	0.5	0
Si	0	0.75	0.25
Si	0.25	0.75	0
Si	0.25	0.5	0.25
Si	0.375	0.625	0.375
Si	0.125	0.625	0.125
Si	0.125	0.875	0.375
Si	0.375	0.875	0.125
Si	0	0.5	0.5
Si	0	0.75	0.75
Si	0.25	0.75	0.5
Si	0.25	0.5	0.75
Si	0.375	0.625	0.875
Si	0.125	0.625	0.625
Si	0.125	0.875	0.875
Si	0.375	0.875	0.625
Si	0.5	0	0
Si	0.5	0.25	0.25
Si	0.75	0.25	0
Si	0.75	0	0.25
Si	0.875	0.125	0.375
Si	0.625	0.125	0.125
Si	0.625	0.375	0.375
Si	0.875	0.375	0.125
Si	0.5	0	0.5
Si	0.5	0.25	0.75
Si	0.75	0.25	0.5
Si	0.75	0	0.75
Si	0.875	0.125	0.875
Si	0.625	0.125	0.625
Si	0.625	0.375	0.875
Si	0.875	0.375	0.625
Si	0.5	0.5	0
Si	0.5	0.75	0.25
Si	0.75	0.75	0
Si	0.75	0.5	0.25
Si	0.875	0.625	0.375
Si	0.625	0.625	0.125
Si	0.625	0.875	0.375
Si	0.875	0.875	0.125
Si	0.5	0.5	0.5
Si	0.5	0.75	0.75
Si	0.75	0.75	0.5
Si	0.75	0.5	0.75
Si	0.875	0.625	0.875
Si	0.625	0.625	0.625
Si	0.625	0.875	0.875
Si	0.875	0.875	0.625
B  	0.125   0.75	0.25
B	0.25	0.875	0.375
%endblock POSITIONS_FRAC

FIX_ALL_CELL : TRUE


kpoint_mp_grid           2 2 2 

%block species_pot
NCP
%endblock species_pot


