67
Lattice="10.862 0.0 0.0 0.0 10.862 0.0 0.0 0.0 10.862" Properties=species:S:1:pos:R:3:forces:R:3 energy=-359.147143118399 free_energy=-359.147143118399 pbc="T T T"
Si       0.02213302      -0.01097234       0.00150244       0.00006361      -0.00004938      -0.00001348
Si       0.02119328       2.71404642       2.72646542      -0.00004739       0.00001415       0.00005080
Si       2.71292953       2.68961343       0.02421973       0.00002297      -0.00009575      -0.00010557
Si       2.87007427       0.01097322       2.70365388      -0.00160837      -0.00343926       0.00345905
Si       4.14636949       1.41820002       4.06669406      -0.00041148      -0.00072206       0.00047351
Si       1.37358691       1.31811598       1.39849498       0.00015341       0.00011593       0.00002258
Si       1.37310554       4.08166829       4.08954240      -0.00003849      -0.00010113       0.00000894
Si       4.06337707       4.08539278       1.36540373       0.00002284      -0.00014945      -0.00016105
Si      -0.12814268       0.09258044       5.49710034      -0.00035582       0.00000950       0.00007524
Si       0.01784478       2.69232805       8.15853653      -0.00006344       0.00001863       0.00003647
Si       2.71757772       2.69782601       5.41910266      -0.00004578       0.00018072       0.00008100
Si       2.71592260      -0.03534558       8.11623757       0.00005774       0.00000233       0.00009292
Si       4.06283555       1.34759299       9.49015608      -0.00003849      -0.00013750      -0.00008289
Si       1.36540783       1.34501337       6.78019614      -0.00016921      -0.00004684      -0.00005107
Si       1.35571832       4.05000629       9.52722863       0.00001419      -0.00002546      -0.00000948
Si       4.03042355       4.03210802       6.80558367       0.00000584      -0.00013523      -0.00001766
Si       0.01838086       5.41911293       0.02298195       0.00000525      -0.00001551      -0.00003906
Si      -0.12136910       8.08099232       2.62348092       0.00041093      -0.00001150       0.00003782
Si       2.71792582       8.15811840       0.01604327      -0.00001558      -0.00013185      -0.00038720
Si       2.71590458       5.45710731       2.74923388       0.00004101      -0.00059992      -0.00022083
Si       4.14510009       6.84490108       4.01359638      -0.00085905       0.00102728      -0.00140803
Si       1.36767265       6.79634856       1.36963429       0.00010749      -0.00007017      -0.00006407
Si       0.89379636       9.56521007       4.01533415       0.00845462      -0.00001651       0.00058058
Si       4.14531659       9.50940642       1.29778080      -0.00053452      -0.00061979       0.00084167
Si      -0.01709773       5.41631171       5.42562985       0.00001401      -0.00003159       0.00002662
Si      -0.01760293       8.15252551       8.16105543      -0.00004372       0.00006122       0.00001111
Si       2.50987061       8.16009625       5.40333619      -0.00088858       0.00313792      -0.00464365
Si       2.68522008       5.42787403       8.14879735      -0.00006424      -0.00007634      -0.00002155
Si       4.03076705       6.77160167       9.54339664       0.00004375      -0.00001677      -0.00010707
Si       1.26875828       6.76946917       6.80930749       0.00048748       0.00003670       0.00009026
Si       1.37367520       9.48857322       9.49361439       0.00002984       0.00005870      -0.00014661
Si       4.14060385       9.56304494       6.71955964      -0.00143971       0.00138925      -0.00255703
Si       5.46002587       0.01643485      -0.04169723       0.00006417       0.00004342      -0.00021255
Si       5.46129783       2.75678945       2.69705975       0.00022300       0.00016066      -0.00029844
Si       8.15652841       2.71809333      -0.00302569       0.00000532      -0.00001681      -0.00003570
Si       8.14979520       0.02240851       2.69175349       0.00002145      -0.00007917      -0.00008192
Si       9.47079867       1.40683263       4.06541820      -0.00005614      -0.00001525      -0.00010225
Si       6.79115888       1.37316850       1.34067170       0.00008496      -0.00007589      -0.00012395
Si       6.81449635       4.09828233       4.07312378       0.00001217      -0.00004999      -0.00005916
Si       9.51523739       4.06245538       1.36442766       0.00003725      -0.00001268      -0.00006281
Si       5.49439250       0.06327148       5.40889344       0.00027453       0.00008508       0.00000199
Si       5.41646972       2.72205174       8.15329832      -0.00004362      -0.00009493      -0.00002830
Si       8.14425454       2.74734524       5.44215234      -0.00002211      -0.00002614      -0.00002793
Si       8.14153935       0.01293332       8.14930552      -0.00008460      -0.00004517       0.00001950
Si       9.51503567       1.35040280       9.51520262       0.00001557      -0.00002023       0.00003097
Si       6.80550223       1.39117612       6.80536175      -0.00005703      -0.00004852      -0.00009337
Si       6.78103460       4.06816010       9.50864306       0.00001787      -0.00003955      -0.00004542
Si       9.53038852       4.04859937       6.80471365      -0.00000539       0.00002051       0.00003979
Si       5.41684800       5.42402810      -0.00779598       0.00000149       0.00000881      -0.00005306
Si       5.49229476       8.16661966       2.65408170       0.00001997      -0.00024785       0.00012360
Si       8.14441860       8.13512034      -0.03175426      -0.00000389       0.00000122       0.00003955
Si       8.14260863       5.42893938       2.70188502       0.00004432       0.00007214      -0.00003614
Si       9.48609266       6.76415567       4.05593307       0.00021273       0.00006604      -0.00006319
Si       6.80501933       6.77243839       1.32441024      -0.00010626       0.00012219       0.00005474
Si       6.80698510       9.52224161       4.05501023      -0.00002778      -0.00005722       0.00002273
Si       9.47289775       9.51072664       1.30911321       0.00020387      -0.00006530       0.00007037
Si       5.39731831       5.35686512       5.46048703       0.00043096      -0.00060741       0.00047728
Si       5.39472995       8.11827677       8.21647994       0.00012896      -0.00034612       0.00011440
Si       8.20871632       8.18920942       5.38722090       0.00003628      -0.00005456      -0.00007393
Si       8.21772380       5.37511779       8.20241739      -0.00003802       0.00001257      -0.00000824
Si       9.53068394       6.77288429       9.52889971       0.00002795      -0.00003113      -0.00002107
Si       7.05456961       6.77874487       6.79766251      -0.00001334      -0.00004611      -0.00008442
Si       6.81314199       9.50297390       9.47855425      -0.00015449      -0.00010710      -0.00003119
Si       9.48368576       9.52053529       6.81406713      -0.00007774      -0.00006319       0.00001850
B        2.73053036       9.56164038       4.08214506      -0.00384022       0.00210821       0.00531685
B        4.36768691       7.86543143       5.70719479      -0.00026896      -0.00017854      -0.00040373
B        5.16456340       6.84130481       6.73478475      -0.00037432       0.00006769      -0.00023578
