360
Lattice="11.605727294873521 0.0 0.0 0.0 16.412976941613742 0.0 0.0 0.0 38.6857576495784" Properties=species:S:1:pos:R:3:move_mask:L:1 pbc="F F F"
Si       5.31929168       7.52261443      18.85930685  F
Si       5.31929168       6.15486635     -17.89216291  F
Si      -4.35214774      -6.15486635     -17.89216291  F
Si      -4.35214774      -7.52261443     -15.95787503  F
Si      -2.41785985       7.52261443      18.85930685  F
Si      -2.41785985       6.15486635     -17.89216291  F
Si      -0.48357197      -6.15486635     -17.89216291  F
Si      -0.48357197      -7.52261443     -15.95787503  F
Si       1.45071591       7.52261443      18.85930685  F
Si       1.45071591       6.15486635     -17.89216291  F
Si       3.38500379      -6.15486635     -17.89216291  F
Si       3.38500379      -7.52261443     -15.95787503  F
Si       5.31929168      -3.41937020      18.85930685  F
Si       5.31929168      -4.78711827     -17.89216291  F
Si      -4.35214774      -0.68387404     -17.89216291  F
Si      -4.35214774      -2.05162212     -15.95787503  F
Si      -2.41785985      -3.41937020      18.85930685  F
Si      -2.41785985      -4.78711827     -17.89216291  F
Si      -0.48357197      -0.68387404     -17.89216291  F
Si      -0.48357197      -2.05162212     -15.95787503  F
Si       1.45071591      -3.41937020      18.85930685  F
Si       1.45071591      -4.78711827     -17.89216291  F
Si       3.38500379      -0.68387404     -17.89216291  F
Si       3.38500379      -2.05162212     -15.95787503  F
Si       5.31929168       2.05162212      18.85930685  F
Si       5.31929168       0.68387404     -17.89216291  F
Si      -4.35214774       4.78711827     -17.89216291  F
Si      -4.35214774       3.41937020     -15.95787503  F
Si      -2.41785985       2.05162212      18.85930685  F
Si      -2.41785985       0.68387404     -17.89216291  F
Si      -0.48357197       4.78711827     -17.89216291  F
Si      -0.48357197       3.41937020     -15.95787503  F
Si       1.45071591       2.05162212      18.85930685  F
Si       1.45071591       0.68387404     -17.89216291  F
Si       3.38500379       4.78711827     -17.89216291  F
Si       3.38500379       3.41937020     -15.95787503  F
Si       5.31929168       7.52261443     -15.95787503  F
Si       5.31929168       6.15486635     -14.02358715  F
Si      -4.35214774      -6.15486635     -14.02358715  F
Si      -4.35214774      -7.52261443     -12.08929927  F
Si      -2.41785985       7.52261443     -15.95787503  F
Si      -2.41785985       6.15486635     -14.02358715  F
Si      -0.48357197      -6.15486635     -14.02358715  F
Si      -0.48357197      -7.52261443     -12.08929927  F
Si       1.45071591       7.52261443     -15.95787503  F
Si       1.45071591       6.15486635     -14.02358715  F
Si       3.38500379      -6.15486635     -14.02358715  F
Si       3.38500379      -7.52261443     -12.08929927  F
Si       5.31929168      -3.41937020     -15.95787503  F
Si       5.31929168      -4.78711827     -14.02358715  F
Si      -4.35214774      -0.68387404     -14.02358715  F
Si      -4.35214774      -2.05162212     -12.08929927  F
Si      -2.41785985      -3.41937020     -15.95787503  F
Si      -2.41785985      -4.78711827     -14.02358715  F
Si      -0.48357197      -0.68387404     -14.02358715  F
Si      -0.48357197      -2.05162212     -12.08929927  F
Si       1.45071591      -3.41937020     -15.95787503  F
Si       1.45071591      -4.78711827     -14.02358715  F
Si       3.38500379      -0.68387404     -14.02358715  F
Si       3.38500379      -2.05162212     -12.08929927  F
Si       5.31929168       2.05162212     -15.95787503  F
Si       5.31929168       0.68387404     -14.02358715  F
Si      -4.35214774       4.78711827     -14.02358715  F
Si      -4.35214774       3.41937020     -12.08929927  F
Si      -2.41785985       2.05162212     -15.95787503  F
Si      -2.41785985       0.68387404     -14.02358715  F
Si      -0.48357197       4.78711827     -14.02358715  F
Si      -0.48357197       3.41937020     -12.08929927  F
Si       1.45071591       2.05162212     -15.95787503  F
Si       1.45071591       0.68387404     -14.02358715  F
Si       3.38500379       4.78711827     -14.02358715  F
Si       3.38500379       3.41937020     -12.08929927  F
Si       5.31929168       7.52261443     -12.08929927  F
Si       4.60199865       6.71318294     -10.03511959  T
Si      -3.58108423      -6.73481811     -10.05881955  T
Si      -2.41623951      -7.97605914      -8.33283552  T
Si      -2.41785985       7.52261443     -12.08929927  F
Si      -2.22635772       6.22707588     -10.15776170  T
Si      -0.46671997      -5.99564084     -10.29472168  T
Si      -0.16822797      -7.10894904      -8.27280746  T
Si       1.45071591       7.52261443     -12.08929927  F
Si       1.43283201       6.00374827     -10.27912938  T
Si       3.17991167      -6.20844002     -10.17183470  T
Si       2.27139825      -7.46830333      -8.30302406  T
Si       5.31929168      -3.41937020     -12.08929927  F
Si       5.13805597      -4.86821573     -10.18914236  T
Si      -4.37078908      -0.69283657     -10.18950851  T
Si      -4.42484929      -1.99944270      -8.24868914  T
Si      -2.41785985      -3.41937020     -12.08929927  F
Si      -2.41185009      -4.73514650     -10.15480632  T
Si      -0.49660989      -0.65353770     -10.18304871  T
Si      -0.55278719      -1.98192459      -8.24770421  T
Si       1.45071591      -3.41937020     -12.08929927  F
Si       1.43062628      -4.68783705     -10.16968601  T
Si       3.43268620      -0.68366381     -10.17526436  T
Si       3.43211819      -2.05589256      -8.25041534  T
Si       5.31929168       2.05162212     -12.08929927  F
Si       5.33686652       0.69035233     -10.18798698  T
Si      -4.17512356       4.87732904     -10.17392723  T
Si      -4.17872554       3.67364592      -8.17043121  T
Si      -2.41785985       2.05162212     -12.08929927  F
Si      -2.46044736       0.67606132     -10.18159969  T
Si      -0.47134204       4.70025386     -10.16039893  T
Si      -0.44994768       3.26531983      -8.28524191  T
Si       1.45071591       2.05162212     -12.08929927  F
Si       1.47242067       0.64897575     -10.18650289  T
Si       3.38532927       4.74144485     -10.15151455  T
Si       3.47304715       3.36526941      -8.24066918  T
Si       3.39300409       7.92514733      -8.31696482  T
Si       4.32175392       6.93802863      -6.33289803  T
Si      -3.34193807      -6.95356097      -6.36200029  T
Si      -2.39597577      -7.96707362      -4.40195338  T
Si      -1.28081178       7.45151086      -8.27883648  T
Si      -1.94006872       6.30431298      -6.30210833  T
Si      -0.45364925      -5.80063019      -6.34603535  T
Si      -0.22439718      -7.04439574      -4.38788319  T
Si       1.14127351       7.12298019      -8.26358259  T
Si       1.41382558       5.79647349      -6.35481192  T
Si       2.90637121      -6.30634078      -6.32111417  T
Si       2.13319505      -7.52601457      -4.39470849  T
Si       5.15173607      -3.66900506      -8.18197749  T
Si       4.95869126      -5.09737678      -6.30972199  T
Si      -4.40962579      -0.66871427      -6.32196739  T
Si      -4.45782526      -1.97812267      -4.38356695  T
Si      -2.50455150      -3.36536577      -8.24476060  T
Si      -2.51619470      -4.73223978      -6.32816803  T
Si      -0.52482225      -0.62120974      -6.31351827  T
Si      -0.59734604      -1.95664626      -4.37584622  T
Si       1.41294846      -3.26462810      -8.28835694  T
Si       1.43387947      -4.49636118      -6.30852589  T
Si       3.47244661      -0.70116198      -6.31942986  T
Si       3.46860879      -2.04630553      -4.37402733  T
Si       5.38982560       1.99846493      -8.25034787  T
Si       5.37434218       0.67866694      -6.31899900  T
Si      -3.98138527       5.10411829      -6.30483427  T
Si      -4.09623267       3.81058874      -4.35395500  T
Si      -2.46462514       2.05114797      -8.25791683  T
Si      -2.50111318       0.70700799      -6.31905151  T
Si      -0.47176286       4.49831080      -6.30377481  T
Si      -0.44814390       3.17789904      -4.37019555  T
Si       1.52421964       1.98063260      -8.24779763  T
Si       1.49486243       0.61830525      -6.31609152  T
Si       3.47310382       4.72793338      -6.31563975  T
Si       3.51628650       3.36576623      -4.37520529  T
Si       3.35050212       7.93676444      -4.36738389  T
Si       4.33453217       6.90577640      -2.43066373  T
Si      -3.37763985      -6.93201887      -2.46109781  T
Si      -2.44053705      -7.93339015      -0.49372270  T
Si      -1.16901008       7.52287182      -4.38442025  T
Si      -1.87710764       6.34074126      -2.42991358  T
Si      -0.48279193      -5.77769378      -2.44852092  T
Si      -0.24562342      -7.02641784      -0.49695715  T
Si       1.16290365       7.00158088      -4.37835548  T
Si       1.43091812       5.74777171      -2.42292859  T
Si       2.84981213      -6.33547298      -2.44214439  T
Si       2.10661650      -7.52604129      -0.48689025  T
Si       5.07203037      -3.79076095      -4.35888299  T
Si       4.90733505      -5.13985712      -2.43478398  T
Si      -4.43149200      -0.66642152      -2.44096732  T
Si      -4.47796470      -1.97171667      -0.49474645  T
Si      -2.55430246      -3.36585729      -4.39319305  T
Si      -2.54548442      -4.71270711      -2.44423647  T
Si      -0.55237895      -0.60913730      -2.43641118  T
Si      -0.61695126      -1.95080043      -0.49433226  T
Si       1.41169928      -3.17703395      -4.36913529  T
Si       1.41238559      -4.48864944      -2.43128092  T
Si       3.49428162      -0.70370422      -2.43286269  T
Si       3.45305719      -2.06455190      -0.49725733  T
Si       5.41982593       1.98729273      -4.37658389  T
Si       5.40090095       0.67266847      -2.43583705  T
Si      -3.92840234       5.15086483      -2.42948164  T
Si      -4.11535247       3.79694348      -0.51338015  T
Si      -2.50105069       2.05598224      -4.37465890  T
Si      -2.53137414       0.71630984      -2.43184329  T
Si      -0.47042579       4.47518659      -2.42511987  T
Si      -0.43567370       3.18488958      -0.47228463  T
Si       1.56075827       1.95341112      -4.36999972  T
Si       1.50005092       0.59837755      -2.43559602  T
Si       3.49163950       4.69147257      -2.41938525  T
Si       3.50441845       3.31419021      -0.49784850  T
Si       3.40691788       7.91585559      -0.46999375  T
Si       4.46690680       6.72558365       1.35185731  T
Si      -3.42724554      -6.90865434       1.44004825  T
Si      -2.46070618      -7.91120830       3.40148039  T
Si      -1.14536927       7.53495049      -0.48479038  T
Si      -1.93819148       6.28361513       1.39663556  T
Si      -0.49949435      -5.76685214       1.44706311  T
Si      -0.27425680      -7.02531467       3.39439492  T
Si       1.20116099       7.00570043      -0.46981255  T
Si       1.46915753       5.82762360       1.52757795  T
Si       2.84344876      -6.32159607       1.45015906  T
Si       2.09562357      -7.51293483       3.39256568  T
Si       5.03854543      -3.82464418      -0.48948905  T
Si       4.91047353      -5.15752603       1.45007258  T
Si      -4.43376318      -0.65794481       1.44399982  T
Si      -4.47670823      -1.95777533       3.39087575  T
Si      -2.57796678      -3.35853161      -0.49835363  T
Si      -2.56458230      -4.70661346       1.44481471  T
Si      -0.56144184      -0.60987958       1.44842983  T
Si      -0.62521027      -1.95832781       3.38956478  T
Si       1.39213197      -3.18071970      -0.49046492  T
Si       1.40391753      -4.48678494       1.45100863  T
Si       3.48226968      -0.73525231       1.45497999  T
Si       3.44052830      -2.07933859       3.39793846  T
Si       5.42860277       1.96860218      -0.48457686  T
Si       5.39160697       0.63495530       1.44250375  T
Si      -3.99863462       5.12567868       1.42524928  T
Si      -4.08987932       3.82485177       3.38841740  T
Si      -2.49692884       2.06803358      -0.49043228  T
Si      -2.53477089       0.72558867       1.45202988  T
Si      -0.42122757       4.51055965       1.46095439  T
Si      -0.43968582       3.19297284       3.40263238  T
Si       1.55040991       1.92541730      -0.48847404  T
Si       1.49878879       0.58430895       1.45381601  T
Si       3.46529685       4.62589063       1.45293420  T
Si       3.52088336       3.27772600       3.39163548  T
Si       4.71881411       7.82136201       3.37758913  T
Si       4.51260738       6.70756511       5.40915103  T
Si      -3.43998466      -6.89039775       5.35769545  T
Si      -2.54007132      -7.86795823       7.35337824  T
Si      -1.19085760       7.31249163       3.39522424  T
Si      -1.93947471       6.28544045       5.39469626  T
Si      -0.51944868      -5.77027919       5.34722677  T
Si      -0.29580075      -7.04290109       7.29424037  T
Si       1.14849287       7.22396079       3.40335242  T
Si       1.49071784       5.85294019       5.29708478  T
Si       2.81809839      -6.34686918       5.36474695  T
Si       2.08120482      -7.52945594       7.31764432  T
Si       5.02059441      -3.84479518       3.39947946  T
Si       4.87532290      -5.15729816       5.34833569  T
Si      -4.42620165      -0.63748300       5.32889305  T
Si      -4.47398075      -1.94481138       7.26967980  T
Si      -2.58859712      -3.35529538       3.38506183  T
Si      -2.57685750      -4.68693217       5.34015435  T
Si      -0.55619906      -0.61196015       5.32707129  T
Si      -0.59741727      -1.94545504       7.26878312  T
Si       1.38063427      -3.19025181       3.39572172  T
Si       1.39353218      -4.50050002       5.33809877  T
Si       3.46317599      -0.73731489       5.33927366  T
Si       3.42483588      -2.07363540       7.28619710  T
Si       5.43365570       1.92632095       3.39360055  T
Si       5.38105564       0.61634852       5.33841965  T
Si      -3.99578825       5.11094932       5.35799187  T
Si      -4.15653955       3.72749907       7.25993967  T
Si      -2.49437711       2.07351507       3.39570794  T
Si      -2.51570015       0.73147509       5.34117629  T
Si      -0.40699687       4.53047627       5.33510021  T
Si      -0.41287203       3.23371252       7.29135713  T
Si       1.54884707       1.92983504       3.38842656  T
Si       1.48983726       0.59035352       5.32830397  T
Si       3.47613001       4.62365309       5.32922348  T
Si       3.48780846       3.28433928       7.26573724  T
Si       3.55116281       7.81569289       7.32352653  T
Si       4.76806183       6.62934007       9.04810741  T
Si      -3.75103123      -6.68536073       9.06529090  T
Si      -3.10440944      -7.32433701      11.26006666  T
Si      -1.16257462       7.49592715       7.30630740  T
Si      -2.00877060       6.26494282       9.20116020  T
Si      -0.55326006      -5.85625977       9.27759622  T
Si      -0.68983887      -7.36034302      11.08689733  T
Si       1.25575650       7.06553268       7.28791813  T
Si       1.50691814       5.87711759       9.27407290  T
Si       2.92299249      -6.28692530       9.20726413  T
Si       2.20527858      -7.22654719      11.25627897  T
Si       5.07211116      -3.77886347       7.24829584  T
Si       4.97427597      -5.07747424       9.20306976  T
Si      -4.38977024      -0.65697748       9.22251791  T
Si      -4.40949518      -2.00457663      11.13708857  T
Si      -2.56680065      -3.30846005       7.26076593  T
Si      -2.55439958      -4.68157550       9.17795864  T
Si      -0.52407407      -0.63360880       9.22279104  T
Si      -0.55021938      -2.02155293      11.13670182  T
Si       1.37577453      -3.22198397       7.29424733  T
Si       1.36669903      -4.56951572       9.23329540  T
Si       3.43764827      -0.71594957       9.22241330  T
Si       3.39726624      -2.06787441      11.15077741  T
Si       5.41272288       1.94448875       7.26627535  T
Si       5.34335752       0.65819259       9.22304626  T
Si      -4.04708651       5.04756047       9.19636546  T
Si      -4.23125972       3.59538138      11.04634697  T
Si      -2.46291063       2.07393480       7.28417986  T
Si      -2.47705306       0.71346445       9.21961391  T
Si      -0.41069955       4.58278794       9.23460111  T
Si      -0.44059508       3.31726472      11.19814783  T
Si       1.53492876       1.92770646       7.26868446  T
Si       1.47948321       0.62138508       9.22389177  T
Si       3.49778707       4.67804488       9.16741377  T
Si       3.45876813       3.38388094      11.15039575  T
Si       4.11891897       7.28798009      11.22152814  T
Si       5.31929168       6.15486635      13.05644321  F
Si      -4.35214774      -6.15486635      13.05644321  F
Si      -4.35214774      -7.52261443      14.99073109  F
Si      -1.30392444       7.23053398      11.24015791  T
Si      -2.41785985       6.15486635      13.05644321  F
Si      -0.48357197      -6.15486635      13.05644321  F
Si      -0.48357197      -7.52261443      14.99073109  F
Si       1.73307733       7.36370945      11.09062589  T
Si       1.45071591       6.15486635      13.05644321  F
Si       3.38500379      -6.15486635      13.05644321  F
Si       3.38500379      -7.52261443      14.99073109  F
Si       5.17674300      -3.60700003      11.03955241  T
Si       5.31929168      -4.78711827      13.05644321  F
Si      -4.35214774      -0.68387404      13.05644321  F
Si      -4.35214774      -2.05162212      14.99073109  F
Si      -2.50462713      -3.37803233      11.15658482  T
Si      -2.41785985      -4.78711827      13.05644321  F
Si      -0.48357197      -0.68387404      13.05644321  F
Si      -0.48357197      -2.05162212      14.99073109  F
Si       1.40001863      -3.31240690      11.20077865  T
Si       1.45071591      -4.78711827      13.05644321  F
Si       3.38500379      -0.68387404      13.05644321  F
Si       3.38500379      -2.05162212      14.99073109  F
Si       5.36112563       2.00590273      11.13672971  T
Si       5.31929168       0.68387404      13.05644321  F
Si      -4.35214774       4.78711827      13.05644321  F
Si      -4.35214774       3.41937020      14.99073109  F
Si      -2.43847844       2.06830534      11.14794420  T
Si      -2.41785985       0.68387404      13.05644321  F
Si      -0.48357197       4.78711827      13.05644321  F
Si      -0.48357197       3.41937020      14.99073109  F
Si       1.50657407       2.01505861      11.13528814  T
Si       1.45071591       0.68387404      13.05644321  F
Si       3.38500379       4.78711827      13.05644321  F
Si       3.38500379       3.41937020      14.99073109  F
Si       5.31929168       7.52261443      14.99073109  F
Si       5.31929168       6.15486635      16.92501897  F
Si      -4.35214774      -6.15486635      16.92501897  F
Si      -4.35214774      -7.52261443      18.85930685  F
Si      -2.41785985       7.52261443      14.99073109  F
Si      -2.41785985       6.15486635      16.92501897  F
Si      -0.48357197      -6.15486635      16.92501897  F
Si      -0.48357197      -7.52261443      18.85930685  F
Si       1.45071591       7.52261443      14.99073109  F
Si       1.45071591       6.15486635      16.92501897  F
Si       3.38500379      -6.15486635      16.92501897  F
Si       3.38500379      -7.52261443      18.85930685  F
Si       5.31929168      -3.41937020      14.99073109  F
Si       5.31929168      -4.78711827      16.92501897  F
Si      -4.35214774      -0.68387404      16.92501897  F
Si      -4.35214774      -2.05162212      18.85930685  F
Si      -2.41785985      -3.41937020      14.99073109  F
Si      -2.41785985      -4.78711827      16.92501897  F
Si      -0.48357197      -0.68387404      16.92501897  F
Si      -0.48357197      -2.05162212      18.85930685  F
Si       1.45071591      -3.41937020      14.99073109  F
Si       1.45071591      -4.78711827      16.92501897  F
Si       3.38500379      -0.68387404      16.92501897  F
Si       3.38500379      -2.05162212      18.85930685  F
Si       5.31929168       2.05162212      14.99073109  F
Si       5.31929168       0.68387404      16.92501897  F
Si      -4.35214774       4.78711827      16.92501897  F
Si      -4.35214774       3.41937020      18.85930685  F
Si      -2.41785985       2.05162212      14.99073109  F
Si      -2.41785985       0.68387404      16.92501897  F
Si      -0.48357197       4.78711827      16.92501897  F
Si      -0.48357197       3.41937020      18.85930685  F
Si       1.45071591       2.05162212      14.99073109  F
Si       1.45071591       0.68387404      16.92501897  F
Si       3.38500379       4.78711827      16.92501897  F
Si       3.38500379       3.41937020      18.85930685  F
