360
Lattice="11.605727294873521 0.0 0.0 0.0 16.412976941613742 0.0 0.0 0.0 38.6857576495784" Properties=species:S:1:pos:R:3:move_mask:L:1:forces:R:3 energy=-1753.0366438122037 free_energy=-1753.0366438122037 pbc="F F F"
Si       5.31929168       7.52261443      18.85930685  F      -0.54230067      -0.74160389      -1.08291916
Si       5.31929168       6.15486635     -17.89216291  F      -0.85603664       0.16020215       1.05447737
Si      -4.35214774      -6.15486635     -17.89216291  F       0.85604380      -0.16019950       1.05449382
Si      -4.35214774      -7.52261443     -15.95787503  F       0.06831489       0.93904279      -0.23111972
Si      -2.41785985       7.52261443      18.85930685  F       0.39744546      -0.57069897      -0.85894771
Si      -2.41785985       6.15486635     -17.89216291  F      -0.11475168      -0.24291965       0.66222150
Si      -0.48357197      -6.15486635     -17.89216291  F       0.05581446       0.07755557       0.63925280
Si      -0.48357197      -7.52261443     -15.95787503  F      -0.00247522       0.36953938      -0.26213399
Si       1.45071591       7.52261443      18.85930685  F      -0.01650259      -0.54617207      -0.75464309
Si       1.45071591       6.15486635     -17.89216291  F      -0.05582858      -0.07756091       0.63927791
Si       3.38500379      -6.15486635     -17.89216291  F       0.11474833       0.24291880       0.66222363
Si       3.38500379      -7.52261443     -15.95787503  F      -0.10802987       0.43541967      -0.18063580
Si       5.31929168      -3.41937020      18.85930685  F      -0.77589940       0.02859411      -0.78080766
Si       5.31929168      -4.78711827     -17.89216291  F      -0.79800256       0.02889808       0.76840491
Si      -4.35214774      -0.68387404     -17.89216291  F       0.80385891       0.00560738       0.79989088
Si      -4.35214774      -2.05162212     -15.95787503  F       0.17427744       0.31650874      -0.19545312
Si      -2.41785985      -3.41937020      18.85930685  F      -0.23047181       0.30357180      -0.14923812
Si      -2.41785985      -4.78711827     -17.89216291  F      -0.23168788      -0.26332130       0.16142714
Si      -0.48357197      -0.68387404     -17.89216291  F       0.08814848       0.22318455       0.11379997
Si      -0.48357197      -2.05162212     -15.95787503  F       0.11686869      -0.00036164      -0.16623065
Si       1.45071591      -3.41937020      18.85930685  F      -0.08813850       0.22154322      -0.10321210
Si       1.45071591      -4.78711827     -17.89216291  F      -0.08711601      -0.07490266       0.06910282
Si       3.38500379      -0.68387404     -17.89216291  F       0.19614044       0.34503556       0.16048122
Si       3.38500379      -2.05162212     -15.95787503  F       0.06657867      -0.04438603      -0.12689446
Si       5.31929168       2.05162212      18.85930685  F      -0.81276981       0.01054351      -0.79751056
Si       5.31929168       0.68387404     -17.89216291  F      -0.80385949      -0.00561084       0.79989405
Si      -4.35214774       4.78711827     -17.89216291  F       0.79799809      -0.02889545       0.76837870
Si      -4.35214774       3.41937020     -15.95787503  F       0.15407987       0.30088870      -0.20113123
Si      -2.41785985       2.05162212      18.85930685  F      -0.18267815       0.32696355      -0.17296832
Si      -2.41785985       0.68387404     -17.89216291  F      -0.19614776      -0.34505270       0.16047760
Si      -0.48357197       4.78711827     -17.89216291  F       0.08711968       0.07490724       0.06908343
Si      -0.48357197       3.41937020     -15.95787503  F       0.11696087       0.01529892      -0.14853709
Si       1.45071591       2.05162212      18.85930685  F      -0.08908775       0.23443189      -0.13265189
Si       1.45071591       0.68387404     -17.89216291  F      -0.08814240      -0.22319455       0.11380563
Si       3.38500379       4.78711827     -17.89216291  F       0.23168804       0.26330663       0.16139091
Si       3.38500379       3.41937020     -15.95787503  F       0.10934865       0.02344467      -0.12175551
Si       5.31929168       7.52261443     -15.95787503  F      -0.06831393      -0.93898681      -0.23120802
Si       5.31929168       6.15486635     -14.02358715  F      -0.47503700       0.43885009       0.11055218
Si      -4.35214774      -6.15486635     -14.02358715  F       0.47503152      -0.43890210       0.11047261
Si      -4.35214774      -7.52261443     -12.08929927  F      -0.22450356       0.25969323      -0.67765365
Si      -2.41785985       7.52261443     -15.95787503  F       0.10799433      -0.43542546      -0.18065265
Si      -2.41785985       6.15486635     -14.02358715  F      -0.04232070      -0.09463864       0.07653302
Si      -0.48357197      -6.15486635     -14.02358715  F      -0.16962728      -0.02323892      -0.05410137
Si      -0.48357197      -7.52261443     -12.08929927  F      -0.03385223       0.27983222       0.47804491
Si       1.45071591       7.52261443     -15.95787503  F       0.00245393      -0.36948212      -0.26219897
Si       1.45071591       6.15486635     -14.02358715  F       0.16977770       0.02327370      -0.05399486
Si       3.38500379      -6.15486635     -14.02358715  F       0.04235443       0.09471238       0.07658263
Si       3.38500379      -7.52261443     -12.08929927  F      -0.16218068       0.03213838      -0.15155954
Si       5.31929168      -3.41937020     -15.95787503  F      -0.15409068      -0.30088081      -0.20113247
Si       5.31929168      -4.78711827     -14.02358715  F      -0.12626113       0.16509858       0.05797512
Si      -4.35214774      -0.68387404     -14.02358715  F       0.11702434      -0.19883298       0.05296677
Si      -4.35214774      -2.05162212     -12.08929927  F       0.08885648      -0.07609646      -0.23987773
Si      -2.41785985      -3.41937020     -15.95787503  F      -0.10939141      -0.02344042      -0.12170740
Si      -2.41785985      -4.78711827     -14.02358715  F      -0.19806784      -0.15244009       0.19841555
Si      -0.48357197      -0.68387404     -14.02358715  F       0.08826105      -0.01308398       0.05289462
Si      -0.48357197      -2.05162212     -12.08929927  F       0.05649601      -0.02670077      -0.08781075
Si       1.45071591      -3.41937020     -15.95787503  F      -0.11698784      -0.01529804      -0.14853959
Si       1.45071591      -4.78711827     -14.02358715  F      -0.03970321      -0.12688359       0.10498222
Si       3.38500379      -0.68387404     -14.02358715  F       0.14480746       0.06500634       0.06117814
Si       3.38500379      -2.05162212     -12.08929927  F       0.15956147       0.01526102      -0.18657015
Si       5.31929168       2.05162212     -15.95787503  F      -0.17427009      -0.31647913      -0.19547079
Si       5.31929168       0.68387404     -14.02358715  F      -0.11697416       0.19870418       0.05307793
Si      -4.35214774       4.78711827     -14.02358715  F       0.12628855      -0.16514059       0.05784336
Si      -4.35214774       3.41937020     -12.08929927  F       0.08513439       0.10100916      -0.03776467
Si      -2.41785985       2.05162212     -15.95787503  F      -0.06661218       0.04436606      -0.12687116
Si      -2.41785985       0.68387404     -14.02358715  F      -0.14472904      -0.06502649       0.06119100
Si      -0.48357197       4.78711827     -14.02358715  F       0.03969332       0.12674364       0.10484931
Si      -0.48357197       3.41937020     -12.08929927  F      -0.12630969      -0.51355262      -0.43349784
Si       1.45071591       2.05162212     -15.95787503  F      -0.11689096       0.00035716      -0.16624222
Si       1.45071591       0.68387404     -14.02358715  F      -0.08819957       0.01302948       0.05294966
Si       3.38500379       4.78711827     -14.02358715  F       0.19819806       0.15226100       0.19828307
Si       3.38500379       3.41937020     -12.08929927  F       0.01432614       0.03510109      -0.22311362
Si       5.31929168       7.52261443     -12.08929927  F       0.22800270      -0.25857994      -0.68005075
Si       3.48299365       7.14778826     -10.75323537  T      -0.00073137       0.00019176       0.00024534
Si      -2.51571239      -7.14712936     -10.75277401  T      -0.00063138       0.00000499      -0.00033957
Si      -1.94913079      -8.05781425      -8.50661064  T      -0.00060739       0.00051756       0.00010220
Si      -2.41785985       7.52261443     -12.08929927  F       0.16213261      -0.03152913      -0.15267815
Si      -2.50085552       6.17028604     -10.17886661  T      -0.00061978       0.00091580       0.00027699
Si      -0.05749134      -5.98172143     -10.33940048  T      -0.00036903       0.00018859       0.00049687
Si       0.21522047      -7.10576920      -8.31743792  T       0.00036763      -0.00016377       0.00001388
Si       1.45071591       7.52261443     -12.08929927  F       0.03333246      -0.27833365       0.47616575
Si       1.02553676       5.98201626     -10.33927677  T       0.00017848      -0.00040232       0.00042338
Si       3.46865330      -6.17035981     -10.17863577  T       0.00062046      -0.00072740       0.00014253
Si       2.63319699      -7.39907915      -8.27469699  T       0.00014425       0.00014627      -0.00001517
Si       5.31929168      -3.41937020     -12.08929927  F      -0.08480649      -0.10143031      -0.03721991
Si       5.37141910      -4.77266137     -10.14400596  T      -0.00029316       0.00027266      -0.00054181
Si      -4.34426603      -0.77535152     -10.14898840  T       0.00015212       0.00010344      -0.00036084
Si      -4.29496442      -2.18430024      -8.28217572  T      -0.00057013       0.00051778      -0.00007179
Si      -2.41785985      -3.41937020     -12.08929927  F      -0.01358868      -0.03511726      -0.22156471
Si      -2.12135329      -4.85476882     -10.24992609  T      -0.00102962       0.00017338      -0.00035193
Si      -0.48660486      -0.67012834     -10.17658218  T      -0.00052440       0.00035689      -0.00015432
Si      -0.47997298      -2.04137529      -8.25851925  T       0.00007348      -0.00033851      -0.00057330
Si       1.45071591      -3.41937020     -12.08929927  F       0.12668265       0.51314427      -0.43235611
Si       1.75295447      -4.60392312     -10.14845219  T       0.00007718      -0.00024361       0.00042131
Si       3.43761615      -0.63415953     -10.19237456  T       0.00001268       0.00022034      -0.00031985
Si       3.52839380      -1.94189798      -8.23706372  T       0.00010785       0.00022375      -0.00023014
Si       5.31929168       2.05162212     -12.08929927  F      -0.08854751       0.07731452      -0.24136629
Si       5.31216613       0.77577606     -10.14895751  T       0.00001816      -0.00075418       0.00038032
Si      -4.40363219       4.77276619     -10.14425480  T      -0.00052933       0.00032735       0.00005280
Si      -4.33401678       3.50380471      -8.17789932  T       0.00055810      -0.00009669       0.00007893
Si      -2.41785985       2.05162212     -12.08929927  F      -0.15882230      -0.01465002      -0.18703430
Si      -2.46957860       0.63442762     -10.19233669  T      -0.00043905       0.00003407       0.00017848
Si      -0.78485479       4.60428657     -10.14870826  T      -0.00054565       0.00008779       0.00073504
Si      -0.59881599       3.21499220      -8.26060424  T      -0.00018757      -0.00037142       0.00063526
Si       1.45071591       2.05162212     -12.08929927  F      -0.05566469       0.02730187      -0.08798922
Si       1.45479373       0.67055475     -10.17639340  T       0.00010380       0.00001453      -0.00070502
Si       3.08963569       4.85537956     -10.25047695  T      -0.00016977       0.00002050       0.00078593
Si       3.32613502       3.53448756      -8.29334614  T      -0.00051926      -0.00041631       0.00092514
Si       2.91636074       8.06009926      -8.50809988  T      -0.00046446      -0.00035353       0.00035490
Si       3.92582523       7.15993057      -6.47260282  T       0.00001902       0.00037373       0.00002402
Si      -2.95874156      -7.15662980      -6.47128499  T       0.00066799      -0.00087431      -0.00029733
Si      -2.00285559      -8.10492489      -4.46547048  T      -0.00007567       0.00021902      -0.00031653
Si      -1.66566443       7.39988580      -8.27559689  T      -0.00009790       0.00070488       0.00012282
Si      -2.24906479       6.20591665      -6.30135857  T      -0.00021169      -0.00074268      -0.00122574
Si      -0.17877068      -5.85969412      -6.37071257  T       0.00009069      -0.00007553      -0.00001863
Si       0.11700076      -7.06985540      -4.40238829  T      -0.00040722      -0.00019275      -0.00055165
Si       0.75230348       7.10728461      -8.31813168  T       0.00093472       0.00002863      -0.00008163
Si       1.14729266       5.86170089      -6.37133802  T      -0.00057839       0.00003597      -0.00026590
Si       3.21746687      -6.20478779      -6.30073182  T      -0.00010627      -0.00018194      -0.00011867
Si       2.49048839      -7.45460493      -4.38634746  T       0.00079496       0.00034816      -0.00076618
Si       5.30179559      -3.50332195      -8.17783802  T       0.00051762      -0.00005623      -0.00009060
Si       5.20412212      -4.90727690      -6.28837659  T      -0.00057214      -0.00001816       0.00036592
Si      -4.35053911      -0.90176065      -6.32857112  T      -0.00017222       0.00067567       0.00036053
Si      -4.32840402      -2.20884981      -4.39084589  T      -0.00006309       0.00023988      -0.00053604
Si      -2.35725726      -3.53288801      -8.29302613  T      -0.00025193      -0.00064381       0.00001683
Si      -2.28978103      -4.88570987      -6.36427585  T      -0.00060237      -0.00047171      -0.00036890
Si      -0.49852771      -0.66913175      -6.32485972  T      -0.00037485      -0.00039729       0.00090328
Si      -0.50187184      -2.01694946      -4.38444154  T       0.00001289      -0.00038094      -0.00082474
Si       1.56732348      -3.21431750      -8.26029296  T      -0.00001555       0.00096756       0.00044999
Si       1.65050848      -4.47764587      -6.30174040  T      -0.00019488       0.00032890      -0.00057766
Si       3.49645355      -0.57512782      -6.31479669  T      -0.00048293       0.00017286      -0.00052765
Si       3.55075748      -1.92618401      -4.37496188  T       0.00015414       0.00020173      -0.00047937
Si       5.26340530       2.18513185      -8.28241952  T       0.00057652      -0.00008352      -0.00005311
Si       5.31973565       0.90343505      -6.32826163  T      -0.00037029      -0.00044920      -0.00057894
Si      -4.23572080       4.90852723      -6.28897243  T       0.00003104      -0.00025934       0.00005057
Si      -4.26189160       3.59987741      -4.33938107  T      -0.00004564       0.00013518       0.00000145
Si      -2.56007696       1.94284450      -8.23733953  T       0.00009439      -0.00027391      -0.00044813
Si      -2.52713613       0.57658455      -6.31494731  T      -0.00021603       0.00027976      -0.00002479
Si      -0.68164792       4.47906763      -6.30249906  T       0.00014632       0.00031638      -0.00016454
Si      -0.58903581       3.15432811      -4.37426716  T      -0.00024898      -0.00021658      -0.00018337
Si       1.44884739       2.04266959      -8.25878230  T       0.00022562      -0.00008758      -0.00017899
Si       1.46804047       0.67112768      -6.32464238  T       0.00011552      -0.00009473      -0.00045001
Si       3.25872351       4.88837395      -6.36515755  T       0.00000210      -0.00020055      -0.00015251
Si       3.35257403       3.53286250      -4.41403557  T      -0.00012127       0.00009596      -0.00040102
Si       2.96956241       8.10921492      -4.46743319  T       0.00090371      -0.00057150       0.00031395
Si       4.01193689       7.13041114      -2.52156614  T      -0.00028235       0.00009325       0.00057162
Si      -3.04565444      -7.12549084      -2.52031446  T       0.00017006      -0.00048956      -0.00015377
Si      -2.08855826      -8.06801456      -0.52261769  T      -0.00003200      -0.00013011       0.00081266
Si      -1.52290484       7.45685028      -4.38767300  T      -0.00019146      -0.00000044      -0.00041308
Si      -2.15991737       6.24171539      -2.42989278  T       0.00059389      -0.00035793      -0.00012385
Si      -0.22983155      -5.82595288      -2.45869131  T       0.00000480       0.00027899      -0.00026624
Si       0.04599565      -7.05801871      -0.50053491  T      -0.00058092       0.00066759      -0.00063449
Si       0.85065236       7.07266246      -4.40362586  T      -0.00007249      -0.00028630      -0.00041498
Si       1.19843552       5.82964988      -2.45953899  T      -0.00010339      -0.00038188      -0.00003894
Si       3.12788336      -6.23923113      -2.42874722  T      -0.00004365      -0.00014028      -0.00024159
Si       2.41246284      -7.47016890      -0.49948888  T       0.00048318      -0.00010067      -0.00060836
Si       5.23087059      -3.59835945      -4.33880113  T      -0.00048882      -0.00044129      -0.00052768
Si       5.12468851      -4.95623920      -2.41889124  T      -0.00078148       0.00078762      -0.00024375
Si      -4.37239413      -0.88694004      -2.45720145  T      -0.00068610      -0.00033175      -0.00035518
Si      -4.35958062      -2.17579662      -0.50609404  T       0.00049927       0.00003769       0.00066291
Si      -2.38342086      -3.52959202      -4.41355398  T      -0.00014162      -0.00010096      -0.00061849
Si      -2.33770540      -4.86242106      -2.46603596  T       0.00026302       0.00036338       0.00034483
Si      -0.51231853      -0.65440496      -2.44614041  T       0.00000363       0.00038785      -0.00059280
Si      -0.51989153      -2.00429776      -0.50485004  T      -0.00046573      -0.00020683      -0.00012197
Si       1.55830332      -3.15205042      -4.37397672  T      -0.00034584      -0.00000894       0.00024753
Si       1.61349604      -4.45974988      -2.43547647  T      -0.00059548      -0.00064467      -0.00023410
Si       3.51365965      -0.58511975      -2.43626909  T       0.00046393      -0.00057785      -0.00025740
Si       3.54177462      -1.94251972      -0.49846318  T       0.00049613      -0.00027043       0.00044267
Si       5.29715784       2.21140824      -4.39112372  T       0.00018170       0.00011455      -0.00055619
Si       5.34128425       0.89028603      -2.45705639  T       0.00067727       0.00023889      -0.00000578
Si      -4.15629913       4.95825615      -2.41984351  T       0.00042875      -0.00036485      -0.00051300
Si      -4.22681970       3.64378918      -0.47437270  T      -0.00000723      -0.00035674      -0.00046510
Si      -2.58138320       1.92815460      -4.37534642  T       0.00007334       0.00022790      -0.00058439
Si      -2.54434938       0.58787208      -2.43626440  T      -0.00013071       0.00067082      -0.00046412
Si      -0.64455125       4.46299703      -2.43635815  T       0.00022811       0.00012241      -0.00010874
Si      -0.56742923       3.15353945      -0.49765777  T       0.00030904       0.00020448       0.00006292
Si       1.47139908       2.01968300      -4.38470778  T      -0.00033123       0.00028575      -0.00046926
Si       1.48185221       0.65750956      -2.44619165  T      -0.00018305       0.00007535      -0.00050866
Si       3.30649575       4.86630323      -2.46677437  T      -0.00021880       0.00019999      -0.00017251
Si       3.38753994       3.50416849      -0.52179727  T       0.00023465       0.00041443      -0.00025592
Si       3.05473230       8.07345739      -0.52378903  T       0.00056443      -0.00011545      -0.00019551
Si       4.08855227       7.08484219       1.41658249  T       0.00031056      -0.00062750       0.00029378
Si      -3.12258210      -7.07864581       1.41723523  T       0.00084404      -0.00121477       0.00029446
Si      -2.16312337      -8.02291106       3.41115812  T       0.00062877      -0.00070522      -0.00015799
Si      -1.44534718       7.47330723      -0.50082654  T       0.00065666      -0.00005321       0.00020925
Si      -2.10529801       6.26007446       1.44998084  T       0.00046040      -0.00019089      -0.00009807
Si      -0.27854956      -5.80929245       1.44185581  T       0.00089876      -0.00021946      -0.00008528
Si      -0.01151593      -7.04581828       3.39843952  T      -0.00022898       0.00014823       0.00005056
Si       0.92118807       7.06168188      -0.50150169  T       0.00037369      -0.00054027      -0.00014407
Si       1.24674670       5.81371659       1.44135567  T       0.00012432       0.00009154      -0.00071882
Si       3.07339668      -6.25675296       1.45078938  T      -0.00034994       0.00032259      -0.00030875
Si       2.35245459      -7.47797736       3.38422041  T       0.00041569      -0.00018133      -0.00009985
Si       5.19573758      -3.64101289      -0.47381105  T      -0.00062155      -0.00023264      -0.00077782
Si       5.08085395      -4.99086197       1.45056468  T      -0.00065762       0.00067489      -0.00021591
Si      -4.38369780      -0.84902856       1.42646562  T       0.00007943      -0.00084116      -0.00028955
Si      -4.37836496      -2.13281683       3.38235936  T      -0.00001845      -0.00064587       0.00022956
Si      -2.41857574      -3.49968972      -0.52146140  T      -0.00055752       0.00021430      -0.00008880
Si      -2.37800727      -4.82869330       1.43302631  T      -0.00038491      -0.00045918      -0.00004185
Si      -0.51779503      -0.64571921       1.43497281  T      -0.00006566      -0.00057847      -0.00039133
Si      -0.53363644      -1.99457250       3.37752385  T      -0.00022818      -0.00013226       0.00061349
Si       1.53662007      -3.14989805      -0.49702666  T      -0.00040408      -0.00055790      -0.00057773
Si       1.57826011      -4.46098681       1.44281045  T      -0.00013390      -0.00028537      -0.00044138
Si       3.51181440      -0.60505281       1.44354176  T      -0.00011192      -0.00065265       0.00034392
Si       3.52685901      -1.96252336       3.38121401  T       0.00102268      -0.00003828       0.00054096
Si       5.32821965       2.17981047      -0.50632272  T      -0.00011573       0.00005317       0.00041189
Si       5.35267684       0.85388948       1.42672570  T      -0.00023778      -0.00050424      -0.00030685
Si      -4.11236556       4.99376367       1.44986036  T       0.00030962      -0.00007300      -0.00008808
Si      -4.19974186       3.67554152       3.39220473  T      -0.00067397      -0.00022673      -0.00043493
Si      -2.57247301       1.94586447      -0.49882392  T       0.00038296       0.00033515      -0.00005339
Si      -2.54225496       0.60903658       1.44347209  T      -0.00011824       0.00032008      -0.00008745
Si      -0.60951801       4.46479688       1.44222306  T      -0.00015246      -0.00058702      -0.00037218
Si      -0.54440798       3.15994681       3.38405000  T       0.00014002      -0.00011345      -0.00036487
Si       1.48934044       2.00819078      -0.50528276  T      -0.00027681      -0.00011650       0.00016985
Si       1.48738690       0.64991034       1.43479806  T      -0.00016828       0.00024824       0.00011760
Si       3.34660516       4.83375784       1.43243545  T       0.00003639      -0.00020238       0.00086525
Si       3.41467930       3.47300096       3.37465955  T       0.00037103       0.00068562       0.00046255
Si       3.12958017       8.02852124       3.41102471  T      -0.00048983       0.00018673       0.00093457
Si       4.15829849       7.03221119       5.35519026  T      -0.00022752      -0.00138935       0.00019286
Si      -3.19130633      -7.02681703       5.35530206  T      -0.00014568      -0.00014678       0.00010447
Si      -2.27041635      -7.92841504       7.38258083  T      -0.00052950       0.00080165       0.00078237
Si      -1.38478880       7.48147178       3.38365608  T      -0.00056091      -0.00036722       0.00055376
Si      -2.06693143       6.27518985       5.33134594  T      -0.00000750      -0.00005422      -0.00011177
Si      -0.32185526      -5.79906082       5.34540773  T       0.00039476      -0.00029342       0.00010339
Si      -0.06157387      -7.05015343       7.29617284  T       0.00029054      -0.00061128      -0.00018421
Si       0.97900976       7.04952461       3.39831758  T       0.00022759       0.00046837       0.00009347
Si       1.29014585       5.80325543       5.34554347  T      -0.00018483      -0.00063891       0.00023882
Si       3.03522783      -6.27176003       5.33151906  T      -0.00016277      -0.00034481      -0.00031156
Si       2.32279005      -7.47505397       7.27622024  T      -0.00110597      -0.00031453      -0.00008568
Si       5.16859162      -3.67222138       3.39268853  T       0.00007970      -0.00005458      -0.00128070
Si       5.04707074      -5.00995706       5.32266918  T       0.00064203      -0.00021925      -0.00063704
Si      -4.38428020      -0.80996560       5.31729470  T      -0.00031768       0.00014768       0.00044672
Si      -4.37218743      -2.09103889       7.27551009  T      -0.00024026      -0.00015465      -0.00022255
Si      -2.44621584      -3.46800553       3.37496981  T       0.00061606       0.00045173      -0.00018563
Si      -2.41042605      -4.79252743       5.33529515  T      -0.00083275       0.00033445       0.00028454
Si      -0.51873007      -0.63746059       5.31500588  T      -0.00059065      -0.00021891      -0.00002058
Si      -0.52880397      -1.97903943       7.26051217  T      -0.00006065      -0.00051165      -0.00010381
Si       1.51351811      -3.15591889       3.38435652  T      -0.00036614       0.00041301      -0.00101561
Si       1.54974358      -4.46951357       5.32512080  T       0.00005905       0.00018741       0.00028796
Si       3.50077986      -0.62838948       5.32732735  T       0.00004168      -0.00006758      -0.00015580
Si       3.50322539      -1.98301727       7.26644170  T       0.00055909       0.00030628      -0.00017040
Si       5.34675552       2.13763547       3.38262891  T      -0.00005760       0.00006589       0.00025295
Si       5.35314511       0.81445180       5.31746824  T      -0.00034832      -0.00083422       0.00000547
Si      -4.07852383       5.01296305       5.32245776  T      -0.00063625       0.00028984      -0.00035285
Si      -4.20885552       3.66099523       7.24020893  T       0.00016065      -0.00028167      -0.00022451
Si      -2.55761452       1.96641876       3.38101666  T      -0.00059850      -0.00017336       0.00025356
Si      -2.53143106       0.63200967       5.32685871  T      -0.00027708       0.00044717       0.00107720
Si      -0.58106946       4.47309609       5.32528388  T      -0.00026432      -0.00035983      -0.00013395
Si      -0.52140028       3.18180590       7.27627098  T      -0.00019314       0.00044419      -0.00052693
Si       1.50285766       1.99880205       3.37740758  T      -0.00018735      -0.00070245       0.00047410
Si       1.48813798       0.64129275       5.31484476  T       0.00011677       0.00021018       0.00023807
Si       3.37900588       4.79711127       5.33543933  T       0.00036498      -0.00033229      -0.00011360
Si       3.40819599       3.43007449       7.27049616  T       0.00032630       0.00013500       0.00027716
Si       3.23778669       7.93193941       7.38360257  T      -0.00009523       0.00004158       0.00030433
Si       4.44920967       6.81498029       9.16347028  T       0.00008371      -0.00086662       0.00116519
Si      -3.48189683      -6.81151989       9.16248392  T       0.00004237      -0.00092637       0.00059786
Si      -2.82073595      -7.25686488      11.42232500  T       0.00000733       0.00029747       0.00120710
Si      -1.35516314       7.47816042       7.27670926  T       0.00085890      -0.00070328       0.00002433
Si      -2.13352636       6.22948101       9.16454513  T      -0.00000673      -0.00012183       0.00030656
Si      -0.33464488      -5.87306352       9.28312584  T       0.00014616      -0.00064925      -0.00056953
Si      -0.04374673      -7.34331697      11.09875343  T       0.00088839      -0.00017996      -0.00029097
Si       1.02912135       7.05342897       7.29681586  T      -0.00002027       0.00071302      -0.00025285
Si       1.30249428       5.87593545       9.28353410  T      -0.00020483      -0.00065476      -0.00028641
Si       3.10136880      -6.22748274       9.16443109  T       0.00024715      -0.00005070       0.00018135
Si       2.41041835      -7.26371620      11.16487290  T      -0.00038131      -0.00054329      -0.00011271
Si       5.17726428      -3.65820835       7.24044666  T      -0.00016228      -0.00037834       0.00072124
Si       5.11249517      -4.97185008       9.18479745  T       0.00025176       0.00005441      -0.00010884
Si      -4.36278548      -0.76149591       9.20512134  T       0.00023373      -0.00026822       0.00005348
Si      -4.37493153      -2.05268608      11.15496770  T       0.00043037       0.00011480       0.00014969
Si      -2.43987004      -3.42609364       7.27037192  T      -0.00036571      -0.00000881       0.00032887
Si      -2.38538334      -4.76123561       9.22395480  T      -0.00040216       0.00008145       0.00086188
Si      -0.50635011      -0.64649149       9.20782639  T       0.00003306      -0.00052850      -0.00044706
Si      -0.50421816      -2.02227117      11.13214702  T      -0.00007238      -0.00033785       0.00032943
Si       1.48991820      -3.17885722       7.27625971  T      -0.00025257       0.00041931      -0.00049774
Si       1.52525526      -4.52486449       9.20167621  T      -0.00081684       0.00019288      -0.00018460
Si       3.46068589      -0.65667267       9.21916049  T       0.00008027      -0.00048160      -0.00006769
Si       3.44300096      -2.04006331      11.13880092  T      -0.00063622      -0.00010310       0.00012797
Si       5.34043815       2.09479998       7.27605820  T      -0.00018760      -0.00016728       0.00003996
Si       5.33078469       0.76406805       9.20494452  T      -0.00027372      -0.00014670       0.00071640
Si      -4.14456403       4.97369924       9.18511121  T      -0.00014555      -0.00029705       0.00009382
Si      -4.28288945       3.55430417      11.06505473  T       0.00008286       0.00013540       0.00029583
Si      -2.53469603       1.98590378       7.26631579  T      -0.00014979      -0.00010317       0.00032862
Si      -2.49244417       0.65880689       9.21875989  T      -0.00030017       0.00045803       0.00054076
Si      -0.55703536       4.52709877       9.20219304  T       0.00040613      -0.00060524      -0.00056916
Si      -0.49236279       3.30935265      11.19294780  T       0.00016370      -0.00006118      -0.00056625
Si       1.49747084       1.98237785       7.26059121  T       0.00058949      -0.00029875       0.00054422
Si       1.47454361       0.64873201       9.20751975  T       0.00034593       0.00002802       0.00007925
Si       3.35340710       4.76412539       9.22480537  T       0.00011271       0.00004073       0.00044134
Si       3.41331683       3.39484050      11.15595570  T      -0.00008011       0.00026980       0.00016450
Si       3.78793832       7.25852978      11.42366290  T       0.00009255      -0.00051949       0.00068830
Si       5.31929168       6.15486635      13.05644321  F      -0.64402452       0.37984968      -0.02129140
Si      -4.35214774      -6.15486635      13.05644321  F       0.64390667      -0.37921025      -0.02153672
Si      -4.35214774      -7.52261443      14.99073109  F       0.21530502       0.74851331       0.14196958
Si      -1.44317762       7.26488186      11.16557096  T      -0.00036416       0.00054866       0.00018528
Si      -2.41785985       6.15486635      13.05644321  F       0.29310127       0.01963798       0.33199282
Si      -0.48357197      -6.15486635      13.05644321  F       0.04587778       0.18394375       0.35690640
Si      -0.48357197      -7.52261443      14.99073109  F      -0.04012062       0.07608131       0.05407540
Si       1.01070292       7.34508884      11.09984480  T      -0.00007012      -0.00017749      -0.00014415
Si       1.45071591       6.15486635      13.05644321  F      -0.04598606      -0.18279265       0.35708488
Si       3.38500379      -6.15486635      13.05644321  F      -0.29266797      -0.01898640       0.33164898
Si       3.38500379      -7.52261443      14.99073109  F      -0.17599220       0.17811780       0.04524982
Si       5.25068103      -3.55359230      11.06544006  T      -0.00023085       0.00044025       0.00020837
Si       5.31929168      -4.78711827      13.05644321  F      -0.16823209      -0.03811012      -0.04883487
Si      -4.35214774      -0.68387404      13.05644321  F       0.12520907      -0.09280576       0.20772910
Si      -4.35214774      -2.05162212      14.99073109  F       0.09374368       0.20205861      -0.04243512
Si      -2.44568315      -3.39387318      11.15612530  T       0.00003540       0.00002725       0.00036214
Si      -2.41785985      -4.78711827      13.05644321  F      -0.25043098      -0.12530057       0.05663728
Si      -0.48357197      -0.68387404      13.05644321  F       0.05627540       0.14050661       0.11726242
Si      -0.48357197      -2.05162212      14.99073109  F       0.05692733      -0.01517389      -0.04989890
Si       1.46001569      -3.30847446      11.19302077  T      -0.00008472       0.00029451       0.00019446
Si       1.45071591      -4.78711827      13.05644321  F       0.03803069       0.03430409       0.08301759
Si       3.38500379      -0.68387404      13.05644321  F       0.24240498       0.13876787       0.17383282
Si       3.38500379      -2.05162212      14.99073109  F       0.11361172      -0.05873432      -0.05163640
Si       5.34269881       2.05387422      11.15565194  T      -0.00043717      -0.00029291      -0.00008014
Si       5.31929168       0.68387404      13.05644321  F      -0.12501017       0.09440571       0.20749617
Si      -4.35214774       4.78711827      13.05644321  F       0.16815475       0.03881036      -0.04893481
Si      -4.35214774       3.41937020      14.99073109  F       0.10787188       0.12926307      -0.04523471
Si      -2.47518840       2.04084605      11.13907108  T       0.00026679       0.00059369      -0.00028515
Si      -2.41785985       0.68387404      13.05644321  F      -0.24207294      -0.13734930       0.17322426
Si      -0.48357197       4.78711827      13.05644321  F      -0.03773306      -0.03251588       0.08487947
Si      -0.48357197       3.41937020      14.99073109  F       0.07514688      -0.09623443       0.00479968
Si       1.47187266       2.02324231      11.13241194  T       0.00017320       0.00004374       0.00081968
Si       1.45071591       0.68387404      13.05644321  F      -0.05580541      -0.13837572       0.11610811
Si       3.38500379       4.78711827      13.05644321  F       0.25095290       0.12740271       0.05882433
Si       3.38500379       3.41937020      14.99073109  F       0.11717815      -0.11012698       0.04783919
Si       5.31929168       7.52261443      14.99073109  F      -0.21508212      -0.74858141       0.14223244
Si       5.31929168       6.15486635      16.92501897  F      -0.37067999       0.71102784       0.24046370
Si      -4.35214774      -6.15486635      16.92501897  F       0.37075814      -0.71101531       0.24036011
Si      -4.35214774      -7.52261443      18.85930685  F       0.54230450       0.74161323      -1.08297098
Si      -2.41785985       7.52261443      14.99073109  F       0.17594274      -0.17818161       0.04527811
Si      -2.41785985       6.15486635      16.92501897  F      -0.02710684       0.24091415       0.16847262
Si      -0.48357197      -6.15486635      16.92501897  F       0.05571432      -0.28292267       0.10379063
Si      -0.48357197      -7.52261443      18.85930685  F       0.01650000       0.54618950      -0.75467235
Si       1.45071591       7.52261443      14.99073109  F       0.04016938      -0.07621094       0.05441956
Si       1.45071591       6.15486635      16.92501897  F      -0.05574335       0.28296087       0.10391294
Si       3.38500379      -6.15486635      16.92501897  F       0.02707206      -0.24091083       0.16844133
Si       3.38500379      -7.52261443      18.85930685  F      -0.39743875       0.57071342      -0.85896887
Si       5.31929168      -3.41937020      14.99073109  F      -0.10777752      -0.12940270      -0.04514416
Si       5.31929168      -4.78711827      16.92501897  F      -0.21386008       0.28272866       0.23079751
Si      -4.35214774      -0.68387404      16.92501897  F       0.16961037      -0.34204867       0.19940554
Si      -4.35214774      -2.05162212      18.85930685  F       0.81277933      -0.01054451      -0.79753902
Si      -2.41785985      -3.41937020      14.99073109  F      -0.11731984       0.11006307       0.04805675
Si      -2.41785985      -4.78711827      16.92501897  F      -0.12200824      -0.06524786       0.17161931
Si      -0.48357197      -0.68387404      16.92501897  F       0.11477364      -0.05072293       0.13781246
Si      -0.48357197      -2.05162212      18.85930685  F       0.08908885      -0.23444403      -0.13267058
Si       1.45071591      -3.41937020      14.99073109  F      -0.07511601       0.09620325       0.00496980
Si       1.45071591      -4.78711827      16.92501897  F      -0.12911868       0.01034626       0.22948613
Si       3.38500379      -0.68387404      16.92501897  F       0.07899646      -0.01144167       0.09552544
Si       3.38500379      -2.05162212      18.85930685  F       0.18267754      -0.32697519      -0.17298404
Si       5.31929168       2.05162212      14.99073109  F      -0.09355777      -0.20226117      -0.04227334
Si       5.31929168       0.68387404      16.92501897  F      -0.16962792       0.34211724       0.19945425
Si      -4.35214774       4.78711827      16.92501897  F       0.21380715      -0.28268802       0.23078692
Si      -4.35214774       3.41937020      18.85930685  F       0.77590800      -0.02859853      -0.78081639
Si      -2.41785985       2.05162212      14.99073109  F      -0.11358139       0.05855366      -0.05158782
Si      -2.41785985       0.68387404      16.92501897  F      -0.07901168       0.01141862       0.09554129
Si      -0.48357197       4.78711827      16.92501897  F       0.12908320      -0.01035985       0.22946637
Si      -0.48357197       3.41937020      18.85930685  F       0.08814212      -0.22156272      -0.10321981
Si       1.45071591       2.05162212      14.99073109  F      -0.05693190       0.01500893      -0.04969428
Si       1.45071591       0.68387404      16.92501897  F      -0.11479124       0.05072093       0.13781126
Si       3.38500379       4.78711827      16.92501897  F       0.12203701       0.06522459       0.17154472
Si       3.38500379       3.41937020      18.85930685  F       0.23047347      -0.30360672      -0.14924091
