8
Lattice="5.470992313871248 0.0 0.0 0.0016412976941613743 5.470992313871248 0.0 0.0 0.0 5.470992313871248" Properties=species:S:1:pos:R:3:forces:R:3:energies:R:1 energy=-43.06847528212819 stress="2.4101989515101752e-08 0.00011277732200798048 1.7399211720794883e-16 0.00011277732200798048 -2.4064480430799548e-08 -6.470301027426822e-17 1.7399211720794883e-16 -6.470301027426822e-17 1.063056838837837e-09" free_energy=-43.06847528212819 pbc="T T T"
Si      -0.00000000      -0.00000000       0.00009707      -0.00000000       0.00000000       0.00000000      -5.38355941
Si       1.36815840       1.36774808       1.36765101       0.00000000      -0.00000000      -0.00000000      -5.38355941
Si       0.00082065       2.73549616       2.73559322      -0.00000000       0.00000000       0.00000000      -5.38355941
Si       1.36897905       4.10324424       4.10314717      -0.00000000      -0.00000000      -0.00000000      -5.38355941
Si       2.73549616      -0.00000000       2.73559322      -0.00000000       0.00000000       0.00000000      -5.38355941
Si       4.10365456       1.36774808       4.10314717       0.00000000      -0.00000000      -0.00000000      -5.38355941
Si       2.73631681       2.73549616       0.00009707      -0.00000000       0.00000000       0.00000000      -5.38355941
Si       4.10447521       4.10324424       1.36765101       0.00000000      -0.00000000      -0.00000000      -5.38355941
