8
Lattice="5.470992313871248 0.0 0.0 0.0016412976941613743 5.470992313871248 0.0 0.0 0.0 5.470992313871248" Properties=species:S:1:pos:R:3:forces:R:3:energies:R:1 energy=-43.0684743517068 stress="2.373544746534642e-09 0.00015065560937112162 -1.7346081378524075e-16 0.00015065560937112162 -6.851990488078503e-08 -1.190205094296299e-16 -1.7346081378524075e-16 -1.190205094296299e-16 -4.630831165783464e-08" free_energy=-43.0684743517068 pbc="T T T"
Si       0.00000000       0.00000000       0.00000000      -0.00000000      -0.00000000       0.00239637      -5.38355929
Si       1.36815840       1.36774808       1.36774808       0.00000000       0.00000000      -0.00239637      -5.38355929
Si       0.00082065       2.73549616       2.73549616      -0.00000000      -0.00000000       0.00239637      -5.38355929
Si       1.36897905       4.10324424       4.10324424       0.00000000       0.00000000      -0.00239637      -5.38355929
Si       2.73549616       0.00000000       2.73549616      -0.00000000      -0.00000000       0.00239637      -5.38355929
Si       4.10365456       1.36774808       4.10324424       0.00000000       0.00000000      -0.00239637      -5.38355929
Si       2.73631681       2.73549616       0.00000000      -0.00000000      -0.00000000       0.00239637      -5.38355929
Si       4.10447521       4.10324424       1.36774808       0.00000000       0.00000000      -0.00239637      -5.38355929
