8
Lattice="5.470992313871248 0.0 0.0 -0.0016412976941613743 5.470992313871248 0.0 0.0 0.0 5.470992313871248" Properties=species:S:1:pos:R:3:forces:R:3:energies:R:1 energy=-43.06847435170679 stress="2.3735447037624665e-09 -0.0001506556093714573 -2.0782844976569852e-16 -0.0001506556093714573 -6.851990489422354e-08 -1.5104720202631414e-16 -2.0782844976569852e-16 -1.5104720202631414e-16 -4.630831170181809e-08" free_energy=-43.06847435170679 pbc="T T T"
Si       0.00000000       0.00000000       0.00000000      -0.00000000      -0.00000000      -0.00239637      -5.38355929
Si       1.36733775       1.36774808       1.36774808      -0.00000000       0.00000000       0.00239637      -5.38355929
Si      -0.00082065       2.73549616       2.73549616      -0.00000000      -0.00000000      -0.00239637      -5.38355929
Si       1.36651711       4.10324424       4.10324424       0.00000000       0.00000000       0.00239637      -5.38355929
Si       2.73549616       0.00000000       2.73549616      -0.00000000      -0.00000000      -0.00239637      -5.38355929
Si       4.10283391       1.36774808       4.10324424       0.00000000       0.00000000       0.00239637      -5.38355929
Si       2.73467551       2.73549616       0.00000000      -0.00000000      -0.00000000      -0.00239637      -5.38355929
Si       4.10201326       4.10324424       1.36774808       0.00000000       0.00000000       0.00239637      -5.38355929
