8
Lattice="5.470992313871248 0.0 0.0 0.0054709923138712485 5.470992313871248 0.0 0.0 0.0 5.470992313871248" Properties=species:S:1:pos:R:3:forces:R:3:energies:R:1 energy=-43.068447272454314 stress="2.630948408195439e-07 0.00037592065822988094 -1.9803498583797045e-16 0.00037592065822988094 -2.720821291902081e-07 -1.6299172951616256e-16 -1.9803498583797045e-16 -1.6299172951616256e-16 7.110203652220779e-09" free_energy=-43.068447272454314 pbc="T T T"
Si      -0.00000000      -0.00000000       0.00032355      -0.00000000      -0.00000000       0.00000000      -5.38355591
Si       1.36911583       1.36774808       1.36742453      -0.00000000       0.00000000      -0.00000000      -5.38355591
Si       0.00273550       2.73549616       2.73581971      -0.00000000      -0.00000000       0.00000000      -5.38355591
Si       1.37185132       4.10324424       4.10292068       0.00000000       0.00000000      -0.00000000      -5.38355591
Si       2.73549616      -0.00000000       2.73581971      -0.00000000      -0.00000000       0.00000000      -5.38355591
Si       4.10461198       1.36774808       4.10292068       0.00000000       0.00000000      -0.00000000      -5.38355591
Si       2.73823165       2.73549616       0.00032355      -0.00000000      -0.00000000       0.00000000      -5.38355591
Si       4.10734748       4.10324424       1.36742453       0.00000000       0.00000000      -0.00000000      -5.38355591
