8
Lattice="5.470992313871248 0.0 0.0 -0.0054709923138712485 5.470992313871248 0.0 0.0 0.0 5.470992313871248" Properties=species:S:1:pos:R:3:forces:R:3:energies:R:1 energy=-43.06843693438423 stress="2.1667301295453838e-08 -0.0005021829261945078 -5.5244166573502613e-17 -0.0005021829261945078 -7.660351058377051e-07 -1.2690098751816867e-16 -5.5244166573502613e-17 -1.2690098751816867e-16 -5.192407475205848e-07" free_energy=-43.06843693438423 pbc="T T T"
Si       0.00000000       0.00000000       0.00000000      -0.00000000      -0.00000000      -0.00798795      -5.38355462
Si       1.36638033       1.36774808       1.36774808       0.00000000      -0.00000000       0.00798795      -5.38355462
Si      -0.00273550       2.73549616       2.73549616      -0.00000000       0.00000000      -0.00798795      -5.38355462
Si       1.36364483       4.10324424       4.10324424      -0.00000000       0.00000000       0.00798795      -5.38355462
Si       2.73549616       0.00000000       2.73549616      -0.00000000      -0.00000000      -0.00798795      -5.38355462
Si       4.10187649       1.36774808       4.10324424       0.00000000      -0.00000000       0.00798795      -5.38355462
Si       2.73276066       2.73549616       0.00000000      -0.00000000      -0.00000000      -0.00798795      -5.38355462
Si       4.09914099       4.10324424       1.36774808       0.00000000       0.00000000       0.00798795      -5.38355462
