8
Lattice="5.476463306185119 0.0 0.0 0.0 5.476463306185119 0.0 0.0 0.0 5.476463306185119" Properties=species:S:1:pos:R:3:forces:R:3:energies:R:1 energy=-43.06810607805999 stress="0.0015097459932226056 -3.641519684477573e-16 -2.5981223485071327e-16 -3.641519684477573e-16 0.0015097459932226583 -2.5084973573495274e-16 -2.5981223485071327e-16 -2.5084973573495274e-16 0.001509745993222657" free_energy=-43.06810607805999 pbc="T T T"
Si       0.00000000       0.00000000       0.00000000      -0.00000000      -0.00000000      -0.00000000      -5.38351326
Si       1.36911583       1.36911583       1.36911583      -0.00000000      -0.00000000      -0.00000000      -5.38351326
Si       0.00000000       2.73823165       2.73823165      -0.00000000      -0.00000000      -0.00000000      -5.38351326
Si       1.36911583       4.10734748       4.10734748       0.00000000       0.00000000       0.00000000      -5.38351326
Si       2.73823165       0.00000000       2.73823165      -0.00000000      -0.00000000      -0.00000000      -5.38351326
Si       4.10734748       1.36911583       4.10734748       0.00000000       0.00000000       0.00000000      -5.38351326
Si       2.73823165       2.73823165       0.00000000      -0.00000000      -0.00000000      -0.00000000      -5.38351326
Si       4.10734748       4.10734748       1.36911583       0.00000000       0.00000000       0.00000000      -5.38351326
