8
Lattice="5.476463306185119 0.0 0.0 0.0 5.465521321557377 0.0 0.0 0.0 5.470992313871248" Properties=species:S:1:pos:R:3:forces:R:3:energies:R:1 energy=-43.068407091971025 stress="0.000433745388270554 -1.9601406983905035e-16 -1.0872238456236018e-16 -1.9601406983905035e-16 -0.00043290658217787654 -4.3287535706319415e-17 -1.0872238456236018e-16 -4.3287535706319415e-17 -3.054575559004195e-07" free_energy=-43.068407091971025 pbc="T T T"
Si       0.00000000       0.00000000       0.00000000      -0.00000000      -0.00000000      -0.00000000      -5.38355089
Si       1.36911583       1.36638033       1.36774808      -0.00000000       0.00000000       0.00000000      -5.38355089
Si       0.00000000       2.73276066       2.73549616      -0.00000000      -0.00000000      -0.00000000      -5.38355089
Si       1.36911583       4.09914099       4.10324424       0.00000000       0.00000000       0.00000000      -5.38355089
Si       2.73823165       0.00000000       2.73549616      -0.00000000      -0.00000000      -0.00000000      -5.38355089
Si       4.10734748       1.36638033       4.10324424       0.00000000       0.00000000       0.00000000      -5.38355089
Si       2.73823165       2.73276066       0.00000000      -0.00000000      -0.00000000      -0.00000000      -5.38355089
Si       4.10734748       4.09914099       1.36774808       0.00000000       0.00000000       0.00000000      -5.38355089
