8
Lattice="5.487405290812861 0.0 0.0 0.0 5.454579336929634 0.0 0.0 0.0 5.470992313871248" Properties=species:S:1:pos:R:3:forces:R:3:energies:R:1 energy=-43.06783944653876 stress="0.001303605835552327 -8.3041045162869e-17 -1.16937164774273e-16 -8.3041045162869e-17 -0.0012960652773832176 7.737702216811801e-17 -1.16937164774273e-16 7.737702216811801e-17 -2.7520907445115886e-06" free_energy=-43.06783944653876 pbc="T T T"
Si       0.00000000       0.00000000       0.00000000      -0.00000000      -0.00000000      -0.00000000      -5.38347993
Si       1.37185132       1.36364483       1.36774808      -0.00000000       0.00000000       0.00000000      -5.38347993
Si       0.00000000       2.72728967       2.73549616      -0.00000000      -0.00000000      -0.00000000      -5.38347993
Si       1.37185132       4.09093450       4.10324424      -0.00000000       0.00000000       0.00000000      -5.38347993
Si       2.74370265       0.00000000       2.73549616      -0.00000000      -0.00000000      -0.00000000      -5.38347993
Si       4.11555397       1.36364483       4.10324424       0.00000000       0.00000000       0.00000000      -5.38347993
Si       2.74370265       2.72728967       0.00000000      -0.00000000      -0.00000000      -0.00000000      -5.38347993
Si       4.11555397       4.09093450       1.36774808       0.00000000       0.00000000       0.00000000      -5.38347993
