8
Lattice="5.454579336929634 0.0 0.0 0.0 5.487405290812861 0.0 0.0 0.0 5.470992313871248" Properties=species:S:1:pos:R:3:forces:R:3:energies:R:1 energy=-43.06783944653877 stress="-0.0012960652773832224 -8.606538150811974e-17 9.196282380864507e-17 -8.606538150811974e-17 0.001303605835552212 -1.3184370422818898e-16 9.196282380864507e-17 -1.3184370422818898e-16 -2.7520907445297227e-06" free_energy=-43.06783944653877 pbc="T T T"
Si       0.00000000       0.00000000       0.00000000      -0.00000000      -0.00000000      -0.00000000      -5.38347993
Si       1.36364483       1.37185132       1.36774808       0.00000000      -0.00000000       0.00000000      -5.38347993
Si       0.00000000       2.74370265       2.73549616      -0.00000000      -0.00000000      -0.00000000      -5.38347993
Si       1.36364483       4.11555397       4.10324424       0.00000000       0.00000000       0.00000000      -5.38347993
Si       2.72728967       0.00000000       2.73549616      -0.00000000      -0.00000000      -0.00000000      -5.38347993
Si       4.09093450       1.37185132       4.10324424       0.00000000      -0.00000000       0.00000000      -5.38347993
Si       2.72728967       2.74370265       0.00000000      -0.00000000      -0.00000000      -0.00000000      -5.38347993
Si       4.09093450       4.11555397       1.36774808       0.00000000       0.00000000       0.00000000      -5.38347993
