216
Lattice="11.605727294873521 0.0 0.0 0.0 13.401139555673227 0.0 0.0 0.0 28.428109966331448" Properties=species:S:1:pos:R:3:forces:R:3:energies:R:1 energy=-1165.6031106505193 stress="0.007516592370880615 1.556457334951533e-17 -7.691587770368202e-18 1.556457334951533e-17 0.007449754026019811 -7.794716588004567e-06 -7.691587770368202e-18 -7.794716588004567e-06 0.007731944958273673" free_energy=-1165.6031106505193 pbc="T T T"
Si       0.00003170      13.39983230      20.97900512      -0.00004240      -0.00007435       0.00003400      -5.38471081
Si      11.60171842      13.39996821      23.35928243      -0.00005178      -0.00018709      -0.00002262      -5.38559863
Si      11.58580098       2.20724657      24.20335304      -0.00000484      -0.00005114      -0.00004941      -5.34737155
Si      11.45394530       2.10257341      26.60635982       0.00011110      -0.00003330       0.00004442      -5.36612433
Si      11.58217598       4.40658414      27.26251374      -0.00000792      -0.00010879      -0.00001837      -5.35979726
Si       0.05743659       4.45797131       1.17009730       0.00006473      -0.00006216       0.00004713      -5.33838051
Si       1.89399906       1.10733284      27.48183319      -0.00000004       0.00001001      -0.00008853      -5.37760984
B        1.92571024       1.10388918       1.16787830       0.00006322       0.00001737      -0.00005767      -6.54124222
Si       1.93037620       3.34849940      20.99183276      -0.00001552      -0.00013251       0.00005575      -5.38005211
Si       1.91787328       3.34329207      23.38266737       0.00000357      -0.00007230       0.00001913      -5.36617898
Si       1.93358910       5.59115730      24.16539245      -0.00003272      -0.00005358      -0.00005512      -5.37254832
Si       1.92114152       5.59179448      26.54658146       0.00002889       0.00005526       0.00000228      -5.33841232
Si       3.86750102       0.00244011      20.97642560       0.00004019      -0.00006601       0.00006444      -5.38346979
Si       3.86712066       0.00497408      23.35440344      -0.00000197       0.00003448      -0.00004131      -5.37800254
Si       3.86230524       2.23347956      24.16719847      -0.00006474      -0.00005847      -0.00001260      -5.38241902
Si       3.84969815       2.23529879      26.54629298       0.00000402      -0.00005863      -0.00003046      -5.31500907
Si       3.89015130       4.50939494      27.26559046       0.00002785       0.00009704      -0.00001384      -5.36258203
Si       3.80291810       4.46962502       1.17217183      -0.00000834      -0.00002101       0.00006465      -5.32633747
Si       5.84893496       1.13136134      27.25823007      -0.00003638      -0.00000406       0.00000697      -5.35645524
Si       5.74459972       1.11953089       1.17190250      -0.00008334      -0.00001494       0.00008306      -5.35054144
Si       5.80568831       3.35200740      20.99547736       0.00004810      -0.00003251       0.00012925      -5.37987253
Si       5.81480553       3.35800929      23.39188155       0.00002175      -0.00003269      -0.00002963      -5.35113236
Si       5.80648500       5.61380374      24.18110536      -0.00004885      -0.00001446      -0.00000619      -5.36323113
Si       5.81017736       5.77752222      26.56573921       0.00008157      -0.00009968       0.00000621      -5.36403887
Si       7.73858198       0.00120019      20.97048325       0.00002740       0.00001740       0.00011535      -5.38591994
Si       7.74388847       0.00618151      23.34707959      -0.00005559      -0.00005640      -0.00009788      -5.38078980
Si       7.76665596       2.22294782      24.17939526       0.00002843      -0.00002219      -0.00001309      -5.36196056
Si       7.91850899       2.15250230      26.56470033      -0.00000324      -0.00002803      -0.00005197      -5.37626411
Si       7.73645403       4.47185103      27.24933862       0.00001141       0.00001781      -0.00003266      -5.32915208
Si       7.74457987       4.48486140       1.16175842       0.00001303       0.00007953      -0.00001815      -5.38748082
B        9.67613122       1.11616742      27.25883305      -0.00012898      -0.00001984       0.00004032      -6.52771375
Si       9.73309996       1.12185841       0.94727335       0.00009250       0.00000538       0.00004493      -5.37506043
Si       9.67389131       3.34794910      20.97376546      -0.00002455      -0.00003984       0.00010168      -5.38412659
Si       9.67866374       3.33899718      23.35339143      -0.00009684      -0.00003477      -0.00005656      -5.37880877
Si       9.66789063       5.58254176      24.13293386       0.00003751      -0.00006466      -0.00003688      -5.37629261
Si       9.67115888       5.58669136      26.49781426      -0.00009116       0.00000745      -0.00005370      -5.37677142
Si       0.00107475       6.70300989      20.97642560      -0.00004019      -0.00006601       0.00006444      -5.38346979
Si       0.00145511       6.70554386      23.35440344       0.00000197       0.00003448      -0.00004131      -5.37800254
Si       0.00627053       8.93404934      24.16719847       0.00006474      -0.00005847      -0.00001260      -5.38241902
Si       0.01887761       8.93586857      26.54629298      -0.00000402      -0.00005863      -0.00003046      -5.31500907
Si      11.58415176      11.20996472      27.26559046      -0.00002785       0.00009704      -0.00001384      -5.36258203
Si       0.06565767      11.17019480       1.17217183       0.00000834      -0.00002101       0.00006465      -5.32633747
Si       1.97457670       7.80790262      27.48183319       0.00000004       0.00001001      -0.00008853      -5.37760984
B        1.94286553       7.80445896       1.16787830      -0.00006322       0.00001737      -0.00005767      -6.54124222
Si       1.93819956      10.04906918      20.99183276       0.00001552      -0.00013251       0.00005575      -5.38005211
Si       1.95070248      10.04386185      23.38266737      -0.00000357      -0.00007230       0.00001913      -5.36617898
Si       1.93498667      12.29172708      24.16539245       0.00003272      -0.00005358      -0.00005512      -5.37254832
Si       1.94743424      12.29236426      26.54658146      -0.00002889       0.00005526       0.00000228      -5.33841232
Si       3.86854407       6.69926252      20.97900512       0.00004240      -0.00007435       0.00003400      -5.38471081
Si       3.87258464       6.69939843      23.35928243       0.00005178      -0.00018709      -0.00002262      -5.38559863
Si       3.88850208       8.90781635      24.20335304       0.00000484      -0.00005114      -0.00004941      -5.34737155
Si       4.02035776       8.80314319      26.60635982      -0.00011110      -0.00003330       0.00004442      -5.36612433
Si       3.89212708      11.10715392      27.26251374       0.00000792      -0.00010879      -0.00001837      -5.35979726
Si       3.81113917      11.15854109       1.17009730      -0.00006473      -0.00006216       0.00004713      -5.33838051
B        5.79817184       7.81673720      27.25883305       0.00012898      -0.00001984       0.00004032      -6.52771375
Si       5.74120310       7.82242819       0.94727335      -0.00009250       0.00000538       0.00004493      -5.37506043
Si       5.80041175      10.04851888      20.97376546       0.00002455      -0.00003984       0.00010168      -5.38412659
Si       5.79563932      10.03956695      23.35339143       0.00009684      -0.00003477      -0.00005656      -5.37880877
Si       5.80641243      12.28311154      24.13293386      -0.00003751      -0.00006466      -0.00003688      -5.37629261
Si       5.80314418      12.28726114      26.49781426       0.00009116       0.00000745      -0.00005370      -5.37677142
Si       7.73572108       6.70176997      20.97048325      -0.00002740       0.00001740       0.00011535      -5.38591994
Si       7.73041459       6.70675129      23.34707959       0.00005559      -0.00005640      -0.00009788      -5.38078980
Si       7.70764710       8.92351760      24.17939526      -0.00002843      -0.00002219      -0.00001309      -5.36196056
Si       7.55579407       8.85307208      26.56470033       0.00000324      -0.00002803      -0.00005197      -5.37626411
Si       7.73784903      11.17242080      27.24933862      -0.00001141       0.00001781      -0.00003266      -5.32915208
Si       7.72972319      11.18543118       1.16175842      -0.00001303       0.00007953      -0.00001815      -5.38748082
Si       9.62536810       7.83193112      27.25823007       0.00003638      -0.00000406       0.00000697      -5.35645524
Si       9.72970334       7.82010067       1.17190250       0.00008334      -0.00001494       0.00008306      -5.35054144
Si       9.66861475      10.05257717      20.99547736      -0.00004810      -0.00003251       0.00012925      -5.37987253
Si       9.65949753      10.05857906      23.39188155      -0.00002175      -0.00003269      -0.00002963      -5.35113236
Si       9.66781806      12.31437351      24.18110536       0.00004885      -0.00001446      -0.00000619      -5.36323113
Si       9.66412570      12.47809199      26.56573921      -0.00008157      -0.00009968       0.00000621      -5.36403887
Si       0.16658715       0.09299407       1.81900599      -0.00004693       0.00007405       0.00003543      -5.35927180
Si       0.02391812       0.01379975       4.22185109      -0.00004177       0.00006761       0.00004648      -5.34865946
Si       0.00720759       2.22392836       5.07054057       0.00005004       0.00004694       0.00008498      -5.38523663
Si       0.00096164       2.23091055       7.45069603      -0.00003289      -0.00002095      -0.00008762      -5.38416570
Si       0.00007096       4.46660458       8.24746492       0.00004112       0.00004792      -0.00001024      -5.38306657
Si      11.60559333       4.46727094      10.62912606      -0.00002370       0.00001032      -0.00001823      -5.38281355
Si       1.93311865       1.11148710       8.25004186      -0.00000126       0.00012938       0.00005118      -5.38769993
Si       1.93389922       1.11551988      10.63043498      -0.00002083      -0.00001008      -0.00003475      -5.38324650
Si       1.92699041       3.13710719       1.85991476       0.00001013       0.00010272       0.00003667      -5.38282611
Si       1.93428177       3.31601850       4.24821554       0.00002650       0.00004857       0.00003964      -5.35271127
Si       1.94116767       5.56841755       5.05462519       0.00001907      -0.00002451       0.00012809      -5.36732739
Si       1.93631066       5.57848343       7.44321744       0.00003556       0.00003189      -0.00008928      -5.38179664
Si       3.66935402       0.07711416       1.86214531       0.00004234       0.00005316       0.00000845      -5.38728680
Si       3.83496596       0.00799945       4.24709562       0.00000714       0.00007206       0.00003161      -5.36187942
Si       3.86022642       2.22441170       5.08066962       0.00000577       0.00007582       0.00009174      -5.38022370
Si       3.86705811       2.23045294       7.45721593      -0.00004643       0.00005443      -0.00006299      -5.38572502
Si       3.86931049       4.46661413       8.25153137      -0.00009455       0.00005659       0.00000492      -5.38352981
Si       3.86897043       4.46714330      10.63149866       0.00003519       0.00000696      -0.00004510      -5.38337115
Si       5.80385156       1.11607970       8.25058021      -0.00003531       0.00005594       0.00004602      -5.38300372
Si       5.80333166       1.11610508      10.63115366       0.00003438       0.00007616       0.00003739      -5.38316868
Si       5.78126139       3.37411378       1.92678027      -0.00012434       0.00001989       0.00001277      -5.36029632
Si       5.79186688       3.35605601       4.29213737       0.00001429       0.00004269       0.00009869      -5.38214045
Si       5.78536686       5.60092887       5.05594519      -0.00012335       0.00004594      -0.00003706      -5.36784538
Si       5.79900909       5.58881739       7.44265997      -0.00001182       0.00010895      -0.00001379      -5.38113208
Si       7.76296298       0.04055329       1.88535890      -0.00008292      -0.00001096      -0.00002896      -5.32589228
Si       7.74556373       0.01498588       4.26526211       0.00001364       0.00005553       0.00000885      -5.37937869
Si       7.73894715       2.24211329       5.07286300      -0.00001004       0.00006666      -0.00002921      -5.37834661
Si       7.73779092       2.23675879       7.45101549       0.00000753       0.00007962      -0.00006518      -5.38381070
Si       7.73702839       4.47233846       8.24375990      -0.00002772      -0.00002140       0.00003513      -5.38066386
Si       7.73707703       4.46820176      10.62736943      -0.00001955       0.00007022      -0.00001262      -5.38204779
Si       9.67158708       1.11810857       8.25097249       0.00009274       0.00006733       0.00004119      -5.38445899
Si       9.67136708       1.11689128      10.63122491      -0.00003604       0.00004724      -0.00006463      -5.38319406
Si       9.69680771       3.33682122       1.88366596       0.00008800      -0.00002628      -0.00006408      -5.34535221
Si       9.68384117       3.34335425       4.26442047      -0.00006090       0.00000006       0.00001008      -5.37563314
Si       9.68350430       5.59312033       5.04685038       0.00003732       0.00006179      -0.00004474      -5.36162249
Si       9.67414351       5.58654017       7.43781330      -0.00001244       0.00005217      -0.00009206      -5.38057308
Si       0.19922174       6.77768394       1.86214531      -0.00004234       0.00005316       0.00000845      -5.38728680
Si       0.03360980       6.70856923       4.24709562      -0.00000714       0.00007206       0.00003161      -5.36187942
Si       0.00834934       8.92498148       5.08066962      -0.00000577       0.00007582       0.00009174      -5.38022370
Si       0.00151766       8.93102271       7.45721593       0.00004643       0.00005443      -0.00006299      -5.38572502
Si      11.60499257      11.16718390       8.25153137       0.00009455       0.00005659       0.00000492      -5.38352981
Si      11.60533263      11.16771308      10.63149866      -0.00003519       0.00000696      -0.00004510      -5.38337115
Si       1.93545712       7.81205688       8.25004186       0.00000126       0.00012938       0.00005118      -5.38769993
Si       1.93467655       7.81608966      10.63043498       0.00002083      -0.00001008      -0.00003475      -5.38324650
Si       1.94158536       9.83767697       1.85991476      -0.00001013       0.00010272       0.00003667      -5.38282611
Si       1.93429400      10.01658828       4.24821554      -0.00002650       0.00004857       0.00003964      -5.35271127
Si       1.92740809      12.26898733       5.05462519      -0.00001907      -0.00002451       0.00012809      -5.36732739
Si       1.93226511      12.27905321       7.44321744      -0.00003556       0.00003189      -0.00008928      -5.38179664
Si       3.70198862       6.79356384       1.81900599       0.00004693       0.00007405       0.00003543      -5.35927180
Si       3.84465764       6.71436952       4.22185109       0.00004177       0.00006761       0.00004648      -5.34865946
Si       3.86136818       8.92449814       5.07054057      -0.00005004       0.00004694       0.00008498      -5.38523663
Si       3.86761412       8.93148033       7.45069603       0.00003289      -0.00002095      -0.00008762      -5.38416570
Si       3.86850480      11.16717436       8.24746492      -0.00004112       0.00004792      -0.00001024      -5.38306657
Si       3.86870973      11.16784072      10.62912606       0.00002370       0.00001032      -0.00001823      -5.38281355
Si       5.80271598       7.81867835       8.25097249      -0.00009274       0.00006733       0.00004119      -5.38445899
Si       5.80293598       7.81746106      10.63122491       0.00003604       0.00004724      -0.00006463      -5.38319406
Si       5.77749535      10.03739100       1.88366596      -0.00008800      -0.00002628      -0.00006408      -5.34535221
Si       5.79046189      10.04392402       4.26442047       0.00006090       0.00000006       0.00001008      -5.37563314
Si       5.79079876      12.29369011       5.04685038      -0.00003732       0.00006179      -0.00004474      -5.36162249
Si       5.80015955      12.28710995       7.43781330       0.00001244       0.00005217      -0.00009206      -5.38057308
Si       7.71134008       6.74112307       1.88535890       0.00008292      -0.00001096      -0.00002896      -5.32589228
Si       7.72873933       6.71555566       4.26526211      -0.00001364       0.00005553       0.00000885      -5.37937869
Si       7.73535591       8.94268307       5.07286300       0.00001004       0.00006666      -0.00002921      -5.37834661
Si       7.73651214       8.93732856       7.45101549      -0.00000753       0.00007962      -0.00006518      -5.38381070
Si       7.73727467      11.17290824       8.24375990       0.00002772      -0.00002140       0.00003513      -5.38066386
Si       7.73722603      11.16877154      10.62736943       0.00001955       0.00007022      -0.00001262      -5.38204779
Si       9.67045150       7.81664948       8.25058021       0.00003531       0.00005594       0.00004602      -5.38300372
Si       9.67097140       7.81667486      10.63115366      -0.00003438       0.00007616       0.00003739      -5.38316868
Si       9.69304167      10.07468356       1.92678027       0.00012434       0.00001989       0.00001277      -5.36029632
Si       9.68243618      10.05662579       4.29213737      -0.00001429       0.00004269       0.00009869      -5.38214045
Si       9.68893620      12.30149865       5.05594519       0.00012335       0.00004594      -0.00003706      -5.36784538
Si       9.67529397      12.28938717       7.44265997       0.00001182       0.00010895      -0.00001379      -5.38113208
Si      11.60547294      13.40097214      11.43255409      -0.00003565       0.00007067       0.00002179      -5.38319220
Si      11.60567561       0.00001901      13.81393299       0.00001764      -0.00000895       0.00005912      -5.38316898
Si      11.60571244       2.23389783      14.61432468      -0.00003207      -0.00002086      -0.00014165      -5.38306290
Si       0.00029851       2.23422572      16.99577106       0.00001137      -0.00003826      -0.00004188      -5.38309694
Si       0.00095277       4.46755100      17.79779921      -0.00002360      -0.00002864       0.00000489      -5.38307660
Si       0.00171611       4.46757093      20.17845828      -0.00009191       0.00000719      -0.00005321      -5.38291030
Si       1.93377474       1.11773450      17.79838057       0.00000370      -0.00008558      -0.00005203      -5.38297497
Si       1.93267522       1.11837499      20.17944189       0.00000126      -0.00011141      -0.00008232      -5.38402754
Si       1.93410589       3.34988769      11.43133216       0.00000449       0.00008358      -0.00007457      -5.38242144
Si       1.93435760       3.35047685      13.81336966      -0.00001181      -0.00000734      -0.00001910      -5.38304408
Si       1.93459374       5.58383681      14.61565690       0.00000641      -0.00001756      -0.00003232      -5.38277288
Si       1.93537578       5.58403002      16.99795834      -0.00004206      -0.00003993      -0.00002026      -5.38279291
Si       3.86853152      13.40073402      11.43188686       0.00005114       0.00003853      -0.00003789      -5.38297635
Si       3.86834918      13.40113234      13.81381962      -0.00000423      -0.00004327       0.00009090      -5.38292167
Si       3.86850351       2.23368367      14.61518843       0.00003015       0.00001616      -0.00005927      -5.38275544
Si       3.86825613       2.23398583      16.99732021      -0.00002719      -0.00002911      -0.00004447      -5.38344611
Si       3.86852644       4.46590256      17.80202690       0.00001622      -0.00006204      -0.00003176      -5.38193672
Si       3.86810931       4.46350711      20.18622351       0.00003925      -0.00008480      -0.00000577      -5.38183243
Si       5.80266936       1.11797403      17.79789899       0.00001574       0.00002056       0.00005820      -5.38292272
Si       5.80278865       1.12076685      20.17922743       0.00003204      -0.00002266       0.00002229      -5.38223089
Si       5.80361033       3.35040984      11.43118024       0.00004215      -0.00001017      -0.00002055      -5.38257087
Si       5.80296294       3.35010443      13.81319412      -0.00001486       0.00000813      -0.00005338      -5.38295282
Si       5.80258930       5.58332366      14.61509426       0.00005338       0.00000948       0.00004415      -5.38294505
Si       5.80190788       5.58267549      16.99693570      -0.00000895       0.00000871       0.00007310      -5.38293917
Si       7.73742576      13.40088061      11.43174613      -0.00001933      -0.00001668       0.00003343      -5.38337521
Si       7.73738259      13.40070253      13.81342786      -0.00002241       0.00003309       0.00008046      -5.38285170
Si       7.73729999       2.23332740      14.61405916       0.00001281       0.00003341      -0.00002177      -5.38311875
Si       7.73730263       2.23310322      16.99549674       0.00001949      -0.00001604       0.00003841      -5.38298047
Si       7.73654821       4.46613313      17.79687590       0.00000131       0.00001883       0.00009032      -5.38322180
Si       7.73691044       4.46550221      20.17717249      -0.00005878      -0.00001158       0.00000635      -5.38272924
Si       9.67226461       1.11628019      17.79572403      -0.00001483      -0.00004577       0.00005650      -5.38367749
Si       9.67359442       1.11572522      20.17456189      -0.00011061      -0.00012886      -0.00009572      -5.38907133
Si       9.67102261       3.35110027      11.43048762      -0.00005676       0.00000748      -0.00003156      -5.38284197
Si       9.67134331       3.35060206      13.81262215       0.00004031       0.00004167       0.00002566      -5.38274004
Si       9.67148114       5.58386031      14.61481733      -0.00005018      -0.00002900       0.00004584      -5.38302364
Si       9.67152329       5.58411862      16.99686405       0.00003796      -0.00005173       0.00004635      -5.38209444
Si       0.00004424       6.70016425      11.43188686      -0.00005114       0.00003853      -0.00003789      -5.38297635
Si       0.00022659       6.70056256      13.81381962       0.00000423      -0.00004327       0.00009090      -5.38292167
Si       0.00007225       8.93425344      14.61518843      -0.00003015       0.00001616      -0.00005927      -5.38275544
Si       0.00031963       8.93455561      16.99732021       0.00002719      -0.00002911      -0.00004447      -5.38344611
Si       0.00004933      11.16647233      17.80202690      -0.00001622      -0.00006204      -0.00003176      -5.38193672
Si       0.00046645      11.16407689      20.18622351      -0.00003925      -0.00008480      -0.00000577      -5.38183243
Si       1.93480102       7.81830428      17.79838057      -0.00000370      -0.00008558      -0.00005203      -5.38297497
Si       1.93590054       7.81894477      20.17944189      -0.00000126      -0.00011141      -0.00008232      -5.38402754
Si       1.93446987      10.05045747      11.43133216      -0.00000449       0.00008358      -0.00007457      -5.38242144
Si       1.93421817      10.05104663      13.81336966       0.00001181      -0.00000734      -0.00001910      -5.38304408
Si       1.93398202      12.28440659      14.61565690      -0.00000641      -0.00001756      -0.00003232      -5.38277288
Si       1.93319999      12.28459980      16.99795834       0.00004206      -0.00003993      -0.00002026      -5.38279291
Si       3.86883012       6.70040236      11.43255409       0.00003565       0.00007067       0.00002179      -5.38319220
Si       3.86862745       6.70058879      13.81393299      -0.00001764      -0.00000895       0.00005912      -5.38316898
Si       3.86859062       8.93446761      14.61432468       0.00003207      -0.00002086      -0.00014165      -5.38306290
Si       3.86827725       8.93479550      16.99577106      -0.00001137      -0.00003826      -0.00004188      -5.38309694
Si       3.86762299      11.16812078      17.79779921       0.00002360      -0.00002864       0.00000489      -5.38307660
Si       3.86685966      11.16814071      20.17845828       0.00009191       0.00000719      -0.00005321      -5.38291030
Si       5.80203845       7.81684997      17.79572403       0.00001483      -0.00004577       0.00005650      -5.38367749
Si       5.80070864       7.81629499      20.17456189       0.00011061      -0.00012886      -0.00009572      -5.38907133
Si       5.80328045      10.05167005      11.43048762       0.00005676       0.00000748      -0.00003156      -5.38284197
Si       5.80295975      10.05117184      13.81262215      -0.00004031       0.00004167       0.00002566      -5.38274004
Si       5.80282192      12.28443009      14.61481733       0.00005018      -0.00002900       0.00004584      -5.38302364
Si       5.80277977      12.28468840      16.99686405      -0.00003796      -0.00005173       0.00004635      -5.38209444
Si       7.73687730       6.70031083      11.43174613       0.00001933      -0.00001668       0.00003343      -5.38337521
Si       7.73692047       6.70013275      13.81342786       0.00002241       0.00003309       0.00008046      -5.38285170
Si       7.73700307       8.93389718      14.61405916      -0.00001281       0.00003341      -0.00002177      -5.38311875
Si       7.73700043       8.93367300      16.99549674      -0.00001949      -0.00001604       0.00003841      -5.38298047
Si       7.73775485      11.16670291      17.79687590      -0.00000131       0.00001883       0.00009032      -5.38322180
Si       7.73739262      11.16607199      20.17717249       0.00005878      -0.00001158       0.00000635      -5.38272924
Si       9.67163370       7.81854381      17.79789899      -0.00001574       0.00002056       0.00005820      -5.38292272
Si       9.67151441       7.82133663      20.17922743      -0.00003204      -0.00002266       0.00002229      -5.38223089
Si       9.67069273      10.05097962      11.43118024      -0.00004215      -0.00001017      -0.00002055      -5.38257087
Si       9.67134012      10.05067420      13.81319412       0.00001486       0.00000813      -0.00005338      -5.38295282
Si       9.67171376      12.28389344      14.61509426      -0.00005338       0.00000948       0.00004415      -5.38294505
Si       9.67239518      12.28324527      16.99693570       0.00000895       0.00000871       0.00007310      -5.38293917
