216
Lattice="11.605727294873521 0.0 0.0 0.0 13.401139555673227 0.0 0.0 0.0 28.428109966331448" Properties=species:S:1:pos:R:3:forces:R:3 energy=-1164.2094064716257 free_energy=-1164.2094064716257 pbc="T T T"
Si       0.00000000       0.00000000      20.92624761       0.00000300      -0.00005723       0.00000299
Si      11.60572729      13.40113956      23.29525678      -0.00000346      -0.00004690      -0.00001915
Si      11.60572729       2.23352326      24.08492650       0.00002919      -0.00002032      -0.00003522
Si      11.60572729       2.23352326      26.45393566       0.00005017      -0.00004573      -0.00003939
Si      11.60572729       4.46704652      27.24360538       0.00001260       0.00002071       0.00005707
Si       0.00000000       4.46704652       1.18450458       0.00002887      -0.00005893      -0.00002598
Si       1.93428788       1.11676163      27.24360538      -0.00000290      -0.00004002      -0.00013207
B        1.93428788       1.11676163       1.18450458       0.00004885       0.00000973      -0.00006484
Si       1.93428788       3.35028489      20.92624761       0.00003909      -0.00001775       0.00007309
Si       1.93428788       3.35028489      23.29525678      -0.00000874       0.00003010      -0.00002548
Si       1.93428788       5.58380815      24.08492650       0.00006488      -0.00000915       0.00001732
Si       1.93428788       5.58380815      26.45393566      -0.00001092      -0.00000657      -0.00005743
Si       3.86857576      13.40113956      20.92624761       0.00007141       0.00002910      -0.00004345
Si       3.86857576      13.40113956      23.29525678      -0.00002413       0.00001124      -0.00007529
Si       3.86857576       2.23352326      24.08492650       0.00002029       0.00001125      -0.00004849
Si       3.86857576       2.23352326      26.45393566       0.00001865       0.00002242      -0.00007774
Si       3.86857576       4.46704652      27.24360538       0.00005123       0.00006241       0.00005153
Si       3.86857576       4.46704652       1.18450458      -0.00005123      -0.00006241      -0.00005153
Si       5.80286365       1.11676163      27.24360538       0.00004293       0.00001438       0.00000085
Si       5.80286365       1.11676163       1.18450458      -0.00010012       0.00001458      -0.00008662
Si       5.80286365       3.35028489      20.92624761       0.00003230      -0.00002350       0.00001018
Si       5.80286365       3.35028489      23.29525678       0.00001344       0.00001912      -0.00001827
Si       5.80286365       5.58380815      24.08492650      -0.00002758       0.00003667       0.00003591
Si       5.80286365       5.58380815      26.45393566      -0.00000317      -0.00011553      -0.00009508
Si       7.73715153      13.40113956      20.92624761      -0.00004135       0.00005229      -0.00001987
Si       7.73715153      13.40113956      23.29525678       0.00001429       0.00004005      -0.00005782
Si       7.73715153       2.23352326      24.08492650       0.00000785       0.00002692      -0.00001047
Si       7.73715153       2.23352326      26.45393566      -0.00006355       0.00007538      -0.00012866
Si       7.73715153       4.46704652      27.24360538      -0.00002887       0.00005893       0.00002598
Si       7.73715153       4.46704652       1.18450458      -0.00001260      -0.00002071      -0.00005707
B        9.67143941       1.11676163      27.24360538      -0.00002304      -0.00000142      -0.00002707
Si       9.67143941       1.11676163       1.18450458       0.00003762      -0.00000035      -0.00004215
Si       9.67143941       3.35028489      20.92624761      -0.00004215       0.00000429       0.00006494
Si       9.67143941       3.35028489      23.29525678      -0.00001374       0.00002083      -0.00000665
Si       9.67143941       5.58380815      24.08492650       0.00000779      -0.00001721       0.00004510
Si       9.67143941       5.58380815      26.45393566      -0.00000612      -0.00000976      -0.00003966
Si      11.60572729       6.70056978      20.92624761       0.00000918       0.00007734       0.00004313
Si      11.60572729       6.70056978      23.29525678       0.00002295       0.00001083       0.00004063
Si      11.60572729       8.93409304      24.08492650       0.00005814       0.00001847       0.00001378
Si      11.60572729       8.93409304      26.45393566       0.00002013       0.00001590      -0.00001590
Si      11.60572729      11.16761630      27.24360538       0.00002867      -0.00003431       0.00000527
Si       0.00000000      11.16761630       1.18450458       0.00003092       0.00004860       0.00002795
Si       1.93428788       7.81733141      27.24360538       0.00010012      -0.00001458       0.00008662
B        1.93428788       7.81733141       1.18450458      -0.00004293      -0.00001438      -0.00000085
Si       1.93428788      10.05085467      20.92624761       0.00000589      -0.00000626       0.00000426
Si       1.93428788      10.05085467      23.29525678       0.00000544      -0.00003394       0.00004118
Si       1.93428788      12.28437793      24.08492650       0.00002359      -0.00000452      -0.00002608
Si       1.93428788      12.28437793      26.45393566       0.00002482      -0.00001974       0.00002039
Si       3.86857576       6.70056978      20.92624761      -0.00000488      -0.00000396       0.00004152
Si       3.86857576       6.70056978      23.29525678      -0.00001346       0.00001707       0.00001747
Si       3.86857576       8.93409304      24.08492650       0.00002608       0.00000022       0.00000874
Si       3.86857576       8.93409304      26.45393566      -0.00014712       0.00008301      -0.00005766
Si       3.86857576      11.16761630      27.24360538       0.00004432      -0.00005849      -0.00001028
Si       3.86857576      11.16761630       1.18450458      -0.00004432       0.00005849       0.00001028
B        5.80286365       7.81733141      27.24360538      -0.00004885      -0.00000973       0.00006484
Si       5.80286365       7.81733141       1.18450458       0.00000290       0.00004002       0.00013207
Si       5.80286365      10.05085467      20.92624761       0.00001061       0.00003329      -0.00005618
Si       5.80286365      10.05085467      23.29525678      -0.00004621       0.00000889       0.00002720
Si       5.80286365      12.28437793      24.08492650       0.00003433       0.00000358      -0.00005604
Si       5.80286365      12.28437793      26.45393566      -0.00005280       0.00004104      -0.00007784
Si       7.73715153       6.70056978      20.92624761       0.00002230      -0.00002020      -0.00002185
Si       7.73715153       6.70056978      23.29525678      -0.00002011      -0.00004589       0.00006438
Si       7.73715153       8.93409304      24.08492650      -0.00005350       0.00000915       0.00000591
Si       7.73715153       8.93409304      26.45393566       0.00012055       0.00007870      -0.00006275
Si       7.73715153      11.16761630      27.24360538      -0.00003092      -0.00004860      -0.00002795
Si       7.73715153      11.16761630       1.18450458      -0.00002867       0.00003431      -0.00000527
Si       9.67143941       7.81733141      27.24360538      -0.00003762       0.00000035       0.00004215
Si       9.67143941       7.81733141       1.18450458       0.00002304       0.00000142       0.00002707
Si       9.67143941      10.05085467      20.92624761       0.00001016       0.00001188      -0.00003434
Si       9.67143941      10.05085467      23.29525678       0.00004259       0.00000608       0.00007879
Si       9.67143941      12.28437793      24.08492650       0.00000122       0.00001484      -0.00002401
Si       9.67143941      12.28437793      26.45393566      -0.00000425      -0.00003807      -0.00008192
Si      11.60572729      13.40113956       1.97417430      -0.00012055      -0.00007870       0.00006275
Si      11.60572729      13.40113956       4.34318347       0.00005350      -0.00000915      -0.00000591
Si      11.60572729       2.23352326       5.13285319       0.00002011       0.00004589      -0.00006438
Si      11.60572729       2.23352326       7.50186235      -0.00002230       0.00002020       0.00002185
Si      11.60572729       4.46704652       8.29153207       0.00000990      -0.00002067      -0.00003874
Si       0.00000000       4.46704652      10.66054124       0.00001629       0.00001344      -0.00002471
Si       1.93428788       1.11676163       8.29153207       0.00002465       0.00001390      -0.00009378
Si       1.93428788       1.11676163      10.66054124      -0.00001493       0.00005538       0.00000640
Si       1.93428788       3.35028489       1.97417430       0.00000317       0.00011553       0.00009508
Si       1.93428788       3.35028489       4.34318347       0.00002758      -0.00003667      -0.00003591
Si       1.93428788       5.58380815       5.13285319      -0.00001344      -0.00001912       0.00001827
Si       1.93428788       5.58380815       7.50186235      -0.00003230       0.00002350      -0.00001018
Si       3.86857576      13.40113956       1.97417430       0.00014712      -0.00008301       0.00005766
Si       3.86857576      13.40113956       4.34318347      -0.00002608      -0.00000022      -0.00000874
Si       3.86857576       2.23352326       5.13285319       0.00001346      -0.00001707      -0.00001747
Si       3.86857576       2.23352326       7.50186235       0.00000488       0.00000396      -0.00004152
Si       3.86857576       4.46704652       8.29153207      -0.00003695      -0.00004884      -0.00001504
Si       3.86857576       4.46704652      10.66054124      -0.00005046       0.00000481      -0.00000336
Si       5.80286365       1.11676163       8.29153207       0.00000843       0.00001508      -0.00009592
Si       5.80286365       1.11676163      10.66054124       0.00000249      -0.00005127      -0.00005042
Si       5.80286365       3.35028489       1.97417430       0.00001092       0.00000657       0.00005743
Si       5.80286365       3.35028489       4.34318347      -0.00006488       0.00000915      -0.00001732
Si       5.80286365       5.58380815       5.13285319       0.00000874      -0.00003010       0.00002548
Si       5.80286365       5.58380815       7.50186235      -0.00003909       0.00001775      -0.00007309
Si       7.73715153      13.40113956       1.97417430      -0.00002013      -0.00001590       0.00001590
Si       7.73715153      13.40113956       4.34318347      -0.00005814      -0.00001847      -0.00001378
Si       7.73715153       2.23352326       5.13285319      -0.00002295      -0.00001083      -0.00004063
Si       7.73715153       2.23352326       7.50186235      -0.00000918      -0.00007734      -0.00004313
Si       7.73715153       4.46704652       8.29153207       0.00001077      -0.00005900      -0.00002474
Si       7.73715153       4.46704652      10.66054124       0.00001897      -0.00004733      -0.00000779
Si       9.67143941       1.11676163       8.29153207      -0.00005178       0.00005621      -0.00009320
Si       9.67143941       1.11676163      10.66054124      -0.00000145      -0.00001520      -0.00005473
Si       9.67143941       3.35028489       1.97417430       0.00000612       0.00000976       0.00003966
Si       9.67143941       3.35028489       4.34318347      -0.00000779       0.00001721      -0.00004510
Si       9.67143941       5.58380815       5.13285319       0.00001374      -0.00002083       0.00000665
Si       9.67143941       5.58380815       7.50186235       0.00004215      -0.00000429      -0.00006494
Si      11.60572729       6.70056978       1.97417430       0.00006355      -0.00007538       0.00012866
Si      11.60572729       6.70056978       4.34318347      -0.00000785      -0.00002692       0.00001047
Si      11.60572729       8.93409304       5.13285319      -0.00001429      -0.00004005       0.00005782
Si      11.60572729       8.93409304       7.50186235       0.00004135      -0.00005229       0.00001987
Si      11.60572729      11.16761630       8.29153207      -0.00000706      -0.00004391      -0.00001095
Si       0.00000000      11.16761630      10.66054124      -0.00000355      -0.00004104       0.00002421
Si       1.93428788       7.81733141       8.29153207      -0.00001536      -0.00004512       0.00002612
Si       1.93428788       7.81733141      10.66054124      -0.00002570       0.00001642      -0.00002195
Si       1.93428788      10.05085467       1.97417430       0.00005280      -0.00004104       0.00007784
Si       1.93428788      10.05085467       4.34318347      -0.00003433      -0.00000358       0.00005604
Si       1.93428788      12.28437793       5.13285319       0.00004621      -0.00000889      -0.00002720
Si       1.93428788      12.28437793       7.50186235      -0.00001061      -0.00003329       0.00005618
Si       3.86857576       6.70056978       1.97417430      -0.00001865      -0.00002242       0.00007774
Si       3.86857576       6.70056978       4.34318347      -0.00002029      -0.00001125       0.00004849
Si       3.86857576       8.93409304       5.13285319       0.00002413      -0.00001124       0.00007529
Si       3.86857576       8.93409304       7.50186235      -0.00007141      -0.00002910       0.00004345
Si       3.86857576      11.16761630       8.29153207       0.00003815       0.00001226      -0.00004099
Si       3.86857576      11.16761630      10.66054124      -0.00001383      -0.00004104       0.00002237
Si       5.80286365       7.81733141       8.29153207      -0.00003065       0.00002417       0.00007890
Si       5.80286365       7.81733141      10.66054124      -0.00003603       0.00005953       0.00002122
Si       5.80286365      10.05085467       1.97417430      -0.00002482       0.00001974      -0.00002039
Si       5.80286365      10.05085467       4.34318347      -0.00002359       0.00000452       0.00002608
Si       5.80286365      12.28437793       5.13285319      -0.00000544       0.00003394      -0.00004118
Si       5.80286365      12.28437793       7.50186235      -0.00000589       0.00000626      -0.00000426
Si       7.73715153       6.70056978       1.97417430      -0.00005017       0.00004573       0.00003939
Si       7.73715153       6.70056978       4.34318347      -0.00002919       0.00002032       0.00003522
Si       7.73715153       8.93409304       5.13285319       0.00000346       0.00004690       0.00001915
Si       7.73715153       8.93409304       7.50186235      -0.00000300       0.00005723      -0.00000299
Si       7.73715153      11.16761630       8.29153207      -0.00004525       0.00006962       0.00001944
Si       7.73715153      11.16761630      10.66054124       0.00000342      -0.00004355       0.00000163
Si       9.67143941       7.81733141       8.29153207       0.00002896      -0.00003237       0.00005645
Si       9.67143941       7.81733141      10.66054124       0.00004489       0.00003436       0.00001404
Si       9.67143941      10.05085467       1.97417430       0.00000425       0.00003807       0.00008192
Si       9.67143941      10.05085467       4.34318347      -0.00000122      -0.00001484       0.00002401
Si       9.67143941      12.28437793       5.13285319      -0.00004259      -0.00000608      -0.00007879
Si       9.67143941      12.28437793       7.50186235      -0.00001016      -0.00001188       0.00003434
Si      11.60572729      13.40113956      11.45021096      -0.00000821      -0.00000727      -0.00004247
Si      11.60572729      13.40113956      13.81922012      -0.00001719      -0.00005692      -0.00004077
Si      11.60572729       2.23352326      14.60888984       0.00001661       0.00000636      -0.00014555
Si      11.60572729       2.23352326      16.97789901       0.00000670       0.00001026       0.00002782
Si      11.60572729       4.46704652      17.76756873      -0.00001897       0.00004733       0.00000779
Si       0.00000000       4.46704652      20.13657789      -0.00001077       0.00005900       0.00002474
Si       1.93428788       1.11676163      17.76756873       0.00003603      -0.00005953      -0.00002122
Si       1.93428788       1.11676163      20.13657789       0.00003065      -0.00002417      -0.00007890
Si       1.93428788       3.35028489      11.45021096      -0.00001783      -0.00001284      -0.00002296
Si       1.93428788       3.35028489      13.81922012      -0.00000366       0.00004305      -0.00012881
Si       1.93428788       5.58380815      14.60888984      -0.00002632      -0.00005197      -0.00003088
Si       1.93428788       5.58380815      16.97789901       0.00000112      -0.00001458       0.00006254
Si       3.86857576      13.40113956      11.45021096      -0.00003426       0.00001980      -0.00006702
Si       3.86857576      13.40113956      13.81922012      -0.00001718      -0.00002623      -0.00006589
Si       3.86857576       2.23352326      14.60888984      -0.00006955      -0.00000863      -0.00006657
Si       3.86857576       2.23352326      16.97789901      -0.00001157       0.00001678       0.00001448
Si       3.86857576       4.46704652      17.76756873       0.00005046      -0.00000481       0.00000336
Si       3.86857576       4.46704652      20.13657789       0.00003695       0.00004884       0.00001504
Si       5.80286365       1.11676163      17.76756873       0.00002570      -0.00001642       0.00002195
Si       5.80286365       1.11676163      20.13657789       0.00001536       0.00004512      -0.00002612
Si       5.80286365       3.35028489      11.45021096      -0.00000112       0.00001458      -0.00006254
Si       5.80286365       3.35028489      13.81922012       0.00002632       0.00005197       0.00003088
Si       5.80286365       5.58380815      14.60888984       0.00000366      -0.00004305       0.00012881
Si       5.80286365       5.58380815      16.97789901       0.00001783       0.00001284       0.00002296
Si       7.73715153      13.40113956      11.45021096       0.00002599       0.00003177      -0.00004775
Si       7.73715153      13.40113956      13.81922012       0.00003385      -0.00003017      -0.00002575
Si       7.73715153       2.23352326      14.60888984       0.00005348      -0.00002148      -0.00005140
Si       7.73715153       2.23352326      16.97789901       0.00001735       0.00004285      -0.00002104
Si       7.73715153       4.46704652      17.76756873      -0.00001629      -0.00001344       0.00002471
Si       7.73715153       4.46704652      20.13657789      -0.00000990       0.00002067       0.00003874
Si       9.67143941       1.11676163      17.76756873      -0.00004489      -0.00003436      -0.00001404
Si       9.67143941       1.11676163      20.13657789      -0.00002896       0.00003237      -0.00005645
Si       9.67143941       3.35028489      11.45021096       0.00000259      -0.00000055      -0.00003803
Si       9.67143941       3.35028489      13.81922012      -0.00002367       0.00004349      -0.00003260
Si       9.67143941       5.58380815      14.60888984       0.00002367      -0.00004349       0.00003260
Si       9.67143941       5.58380815      16.97789901      -0.00000259       0.00000055       0.00003803
Si      11.60572729       6.70056978      11.45021096      -0.00001735      -0.00004285       0.00002104
Si      11.60572729       6.70056978      13.81922012      -0.00005348       0.00002148       0.00005140
Si      11.60572729       8.93409304      14.60888984      -0.00003385       0.00003017       0.00002575
Si      11.60572729       8.93409304      16.97789901      -0.00002599      -0.00003177       0.00004775
Si      11.60572729      11.16761630      17.76756873      -0.00000342       0.00004355      -0.00000163
Si       0.00000000      11.16761630      20.13657789       0.00004525      -0.00006962      -0.00001944
Si       1.93428788       7.81733141      17.76756873      -0.00000249       0.00005127       0.00005042
Si       1.93428788       7.81733141      20.13657789      -0.00000843      -0.00001508       0.00009592
Si       1.93428788      10.05085467      11.45021096      -0.00004203      -0.00003753      -0.00001512
Si       1.93428788      10.05085467      13.81922012      -0.00001968      -0.00000474      -0.00000461
Si       1.93428788      12.28437793      14.60888984      -0.00004170       0.00002510       0.00005458
Si       1.93428788      12.28437793      16.97789901      -0.00003007      -0.00001352       0.00002995
Si       3.86857576       6.70056978      11.45021096       0.00001157      -0.00001678      -0.00001448
Si       3.86857576       6.70056978      13.81922012       0.00006955       0.00000863       0.00006657
Si       3.86857576       8.93409304      14.60888984       0.00001718       0.00002623       0.00006589
Si       3.86857576       8.93409304      16.97789901       0.00003426      -0.00001980       0.00006702
Si       3.86857576      11.16761630      17.76756873       0.00001383       0.00004104      -0.00002237
Si       3.86857576      11.16761630      20.13657789      -0.00003815      -0.00001226       0.00004099
Si       5.80286365       7.81733141      17.76756873       0.00001493      -0.00005538      -0.00000640
Si       5.80286365       7.81733141      20.13657789      -0.00002465      -0.00001390       0.00009378
Si       5.80286365      10.05085467      11.45021096       0.00003007       0.00001352      -0.00002995
Si       5.80286365      10.05085467      13.81922012       0.00004170      -0.00002510      -0.00005458
Si       5.80286365      12.28437793      14.60888984       0.00001968       0.00000474       0.00000461
Si       5.80286365      12.28437793      16.97789901       0.00004203       0.00003753       0.00001512
Si       7.73715153       6.70056978      11.45021096      -0.00000670      -0.00001026      -0.00002782
Si       7.73715153       6.70056978      13.81922012      -0.00001661      -0.00000636       0.00014555
Si       7.73715153       8.93409304      14.60888984       0.00001719       0.00005692       0.00004077
Si       7.73715153       8.93409304      16.97789901       0.00000821       0.00000727       0.00004247
Si       7.73715153      11.16761630      17.76756873       0.00000355       0.00004104      -0.00002421
Si       7.73715153      11.16761630      20.13657789       0.00000706       0.00004391       0.00001095
Si       9.67143941       7.81733141      17.76756873       0.00000145       0.00001520       0.00005473
Si       9.67143941       7.81733141      20.13657789       0.00005178      -0.00005621       0.00009320
Si       9.67143941      10.05085467      11.45021096      -0.00000186       0.00000266       0.00000601
Si       9.67143941      10.05085467      13.81922012      -0.00002228      -0.00002246       0.00001602
Si       9.67143941      12.28437793      14.60888984       0.00002228       0.00002246      -0.00001602
Si       9.67143941      12.28437793      16.97789901       0.00000186      -0.00000266      -0.00000601
