216
Lattice="11.605727294873521 0.0 0.0 0.0 13.401139555673227 0.0 0.0 0.0 28.428109966331448" Properties=species:S:1:pos:R:3:forces:R:3:energies:R:1 energy=-1164.5273842401746 stress="0.0020559233418715964 -8.649905031486587e-17 5.3734036594854865e-17 -8.649905031486587e-17 0.001891612284748206 -3.045052743053284e-05 5.3734036594854865e-17 -3.045052743053284e-05 0.0020967953505888703" free_energy=-1164.5273842401746 pbc="T T T"
Si      11.60530520      13.40109031      20.94076092       0.00000968      -0.00002369       0.00002391      -5.38739181
Si      11.60235004       0.00136425      23.31361626       0.00007510       0.00001459      -0.00004475      -5.38508133
Si      11.60050344       2.22842532      24.10772652       0.00010204      -0.00003754      -0.00003243      -5.39105364
Si       0.00874277       2.23675290      26.47236812      -0.00011587       0.00000843      -0.00003432      -5.35251477
Si      11.60168436       4.46223350      27.25493053       0.00002121      -0.00002313      -0.00007961      -5.39255592
Si       0.00324702       4.46036952       1.17052135      -0.00008042       0.00003306       0.00008661      -5.38096665
Si       1.92958816       1.10703694      27.24633179      -0.00001474       0.00003020      -0.00004439      -5.35313504
P        1.92291827       1.11650710       1.18240965      -0.00004637       0.00003770      -0.00009053      -5.81685995
Si       1.93487738       3.35010917      20.94241260       0.00006807      -0.00004876      -0.00006064      -5.38572784
Si       1.93257953       3.34995389      23.31316881      -0.00003725       0.00000052      -0.00002673      -5.39085953
Si       1.94044668       5.58610144      24.10878687      -0.00001034      -0.00005943       0.00004450      -5.38688684
Si       1.93485195       5.57769870      26.48030065      -0.00013516       0.00003317      -0.00007039      -5.38364868
Si       3.86841809      13.40032123      20.94140164      -0.00000338       0.00001415      -0.00001639      -5.38469698
Si       3.86874162      13.39858564      23.31266187       0.00002364      -0.00008758      -0.00003343      -5.38428051
Si       3.86808717       2.23112049      24.10307652       0.00001542      -0.00001201      -0.00001699      -5.39628777
Si       3.86736161       2.23285302      26.47726678      -0.00007306       0.00005843       0.00003570      -5.39813760
Si       3.86312114       4.47428154      27.25508565       0.00002829      -0.00003888      -0.00006994      -5.38716560
Si       3.86246840       4.46605265       1.17038502      -0.00002806       0.00003697       0.00012242      -5.38671557
Si       5.80722077       1.11341870      27.25184007      -0.00002928      -0.00005118      -0.00004474      -5.39426711
Si       5.79535129       1.12397157       1.17641423       0.00006289      -0.00007142       0.00006580      -5.39171897
Si       5.80285951       3.34881037      20.94397372       0.00005196       0.00003351      -0.00004986      -5.38688915
Si       5.80525995       3.34971342      23.31564256       0.00009536       0.00007364       0.00006325      -5.39434296
Si       5.80170543       5.59116144      24.10209496      -0.00005993      -0.00009643       0.00011424      -5.38832006
Si       5.80055488       5.57319125      26.46484718       0.00003555      -0.00002688       0.00009829      -5.35442710
Si       7.73792807      13.40001540      20.94183398       0.00005377       0.00004679       0.00002685      -5.38729828
Si       7.74069165      13.40069730      23.31614744       0.00002210      -0.00001477      -0.00001707      -5.38325014
Si       7.74527277       2.22720320      24.10423005      -0.00001632       0.00005667       0.00001265      -5.38753870
Si       7.73587934       2.24057784      26.46663843       0.00000382       0.00002891       0.00014530      -5.35870696
Si       7.74378228       4.47301935      27.25240183      -0.00009419      -0.00003115      -0.00009116      -5.39624090
Si       7.73902942       4.46894418       1.17506149       0.00000799      -0.00004653       0.00009820      -5.38713394
P        9.67995013       1.11987917      27.24807340      -0.00003929       0.00000083       0.00004598      -5.81327279
Si       9.67727181       1.12312754       1.18451766      -0.00003550       0.00004587      -0.00001424      -5.35530743
Si       9.67144396       3.34893959      20.94194724       0.00007386      -0.00003144      -0.00001951      -5.38721731
Si       9.67236427       3.34522085      23.31596580       0.00007081       0.00005473      -0.00003494      -5.38399520
Si       9.66689605       5.58029865      24.10810800      -0.00002543      -0.00000833       0.00001314      -5.37712997
Si       9.67048376       5.58338096      26.47202361       0.00000365      -0.00007136       0.00015099      -5.37324492
Si       0.00015768       6.69975145      20.94140164       0.00000338       0.00001415      -0.00001639      -5.38469698
Si      11.60556144       6.69801586      23.31266187      -0.00002364      -0.00008758      -0.00003343      -5.38428051
Si       0.00048859       8.93169027      24.10307652      -0.00001542      -0.00001201      -0.00001699      -5.39628777
Si       0.00121416       8.93342279      26.47726678       0.00007306       0.00005843       0.00003570      -5.39813760
Si       0.00545463      11.17485132      27.25508565      -0.00002829      -0.00003888      -0.00006994      -5.38716560
Si       0.00610737      11.16662243       1.17038502       0.00002806       0.00003697       0.00012242      -5.38671557
Si       1.93898761       7.80760672      27.24633179       0.00001474       0.00003020      -0.00004439      -5.35313504
P        1.94565749       7.81707688       1.18240965       0.00004637       0.00003770      -0.00009053      -5.81685995
Si       1.93369839      10.05067895      20.94241260      -0.00006807      -0.00004876      -0.00006064      -5.38572784
Si       1.93599623      10.05052366      23.31316881       0.00003725       0.00000052      -0.00002673      -5.39085953
Si       1.92812908      12.28667122      24.10878687       0.00001034      -0.00005943       0.00004450      -5.38688684
Si       1.93372381      12.27826848      26.48030065       0.00013516       0.00003317      -0.00007039      -5.38364868
Si       3.86899786       6.70052053      20.94076092      -0.00000968      -0.00002369       0.00002391      -5.38739181
Si       3.87195302       6.70193403      23.31361626      -0.00007510       0.00001459      -0.00004475      -5.38508133
Si       3.87379962       8.92899510      24.10772652      -0.00010204      -0.00003754      -0.00003243      -5.39105364
Si       3.85983300       8.93732268      26.47236812       0.00011587       0.00000843      -0.00003432      -5.35251477
Si       3.87261870      11.16280327      27.25493053      -0.00002121      -0.00002313      -0.00007961      -5.39255592
Si       3.86532875      11.16093930       1.17052135       0.00008042       0.00003306       0.00008661      -5.38096665
P        5.79435293       7.82044895      27.24807340       0.00003929       0.00000083       0.00004598      -5.81327279
Si       5.79703125       7.82369732       1.18451766       0.00003550       0.00004587      -0.00001424      -5.35530743
Si       5.80285910      10.04950936      20.94194724      -0.00007386      -0.00003144      -0.00001951      -5.38721731
Si       5.80193879      10.04579063      23.31596580      -0.00007081       0.00005473      -0.00003494      -5.38399520
Si       5.80740701      12.28086843      24.10810800       0.00002543      -0.00000833       0.00001314      -5.37712997
Si       5.80381930      12.28395074      26.47202361      -0.00000365      -0.00007136       0.00015099      -5.37324492
Si       7.73637499       6.69944563      20.94183398      -0.00005377       0.00004679       0.00002685      -5.38729828
Si       7.73361141       6.70012752      23.31614744      -0.00002210      -0.00001477      -0.00001707      -5.38325014
Si       7.72903029       8.92777298      24.10423005       0.00001632       0.00005667       0.00001265      -5.38753870
Si       7.73842372       8.94114762      26.46663843      -0.00000382       0.00002891       0.00014530      -5.35870696
Si       7.73052078      11.17358913      27.25240183       0.00009419      -0.00003115      -0.00009116      -5.39624090
Si       7.73527364      11.16951396       1.17506149      -0.00000799      -0.00004653       0.00009820      -5.38713394
Si       9.66708229       7.81398848      27.25184007       0.00002928      -0.00005118      -0.00004474      -5.39426711
Si       9.67895177       7.82454135       1.17641423      -0.00006289      -0.00007142       0.00006580      -5.39171897
Si       9.67144355      10.04938015      20.94397372      -0.00005196       0.00003351      -0.00004986      -5.38688915
Si       9.66904311      10.05028320      23.31564256      -0.00009536       0.00007364       0.00006325      -5.39434296
Si       9.67259763      12.29173122      24.10209496       0.00005993      -0.00009643       0.00011424      -5.38832006
Si       9.67374818      12.27376103      26.46484718      -0.00003555      -0.00002688       0.00009829      -5.35442710
Si      11.59752390      13.39222491       1.95688711       0.00003888       0.00001522      -0.00003124      -5.34977222
Si       0.00588146       0.00577626       4.32137868      -0.00017564      -0.00000103       0.00000791      -5.39298460
Si       0.00497088       2.23337015       5.11349006      -0.00003712       0.00007019       0.00006514      -5.38460755
Si       0.00080134       2.23401631       7.48696047      -0.00000029      -0.00001465       0.00001824      -5.38747940
Si       0.00103944       4.46773061       8.27955620       0.00002153      -0.00004181      -0.00000449      -5.38474769
Si       0.00026764       4.46731197      10.65179712       0.00001072       0.00003795       0.00001295      -5.38343827
Si       1.93427927       1.11728051       8.28089437      -0.00002166       0.00004716      -0.00000692      -5.38446716
Si       1.93429961       1.11681373      10.65273619       0.00003331       0.00007119       0.00001546      -5.38362552
Si       1.92928330       3.36500229       1.96063340       0.00003087       0.00000664      -0.00005580      -5.36231821
Si       1.93331982       3.34895919       4.32066580      -0.00005387       0.00003873      -0.00000124      -5.37960085
Si       1.93578297       5.58623631       5.11038387       0.00007480      -0.00007425       0.00001917      -5.38922647
Si       1.93474758       5.58574070       7.48473969       0.00005438       0.00002388       0.00003233      -5.38833875
Si       3.86755937      13.39640992       1.96106855      -0.00003871      -0.00007287      -0.00014343      -5.35648051
Si       3.85914322       0.00713521       4.32332327       0.00001766      -0.00008440       0.00004843      -5.38855212
Si       3.86299672       2.23417223       5.11132507       0.00003510       0.00003467       0.00004661      -5.38324581
Si       3.86755540       2.23425363       7.48599157      -0.00004203      -0.00002745      -0.00002403      -5.38713712
Si       3.86796079       4.46759300       8.27986629       0.00011064      -0.00003348      -0.00000306      -5.38478970
Si       3.86841907       4.46720145      10.65197671       0.00001271       0.00002612       0.00004922      -5.38348025
Si       5.80196135       1.11715638       8.27927818       0.00003454       0.00001840       0.00000780      -5.38378438
Si       5.80260420       1.11696365      10.65176125      -0.00000529       0.00001042       0.00001558      -5.38351418
Si       5.79804202       3.35515980       1.95278045      -0.00005913       0.00003910      -0.00006677      -5.37757961
Si       5.79853902       3.34828792       4.32312052      -0.00000141      -0.00001112      -0.00001789      -5.38257864
Si       5.79936273       5.58495402       5.11568862       0.00001830      -0.00002855       0.00000965      -5.38952063
Si       5.80274286       5.58393812       7.48643410       0.00008874       0.00002009       0.00001250      -5.38586944
Si       7.73546808       0.00623062       1.95222447      -0.00003149       0.00000343      -0.00004544      -5.39569787
Si       7.73685425      13.40104928       4.32560958      -0.00008501       0.00005982      -0.00007242      -5.39453759
Si       7.73731350       2.23409301       5.11665350      -0.00003743       0.00000807       0.00004142      -5.38438402
Si       7.73713394       2.23353728       7.48737158      -0.00003395      -0.00001485      -0.00000708      -5.38475601
Si       7.73742799       4.46759224       8.27896544       0.00006259      -0.00005501      -0.00000955      -5.38336907
Si       7.73727099       4.46741741      10.65179416      -0.00001277      -0.00002994       0.00002610      -5.38353348
Si       9.67205647       1.11716080       8.27981711      -0.00003981       0.00002671      -0.00001439      -5.38402560
Si       9.67158648       1.11698289      10.65211004      -0.00000288      -0.00000351       0.00000727      -5.38357736
Si       9.67843406       3.35104545       1.95174272       0.00001699       0.00011385      -0.00000188      -5.39348359
Si       9.67717282       3.34709396       4.32100211      -0.00004513       0.00002561      -0.00007852      -5.38807773
Si       9.67634756       5.58493176       5.11340586       0.00014531       0.00007403      -0.00004221      -5.39019439
Si       9.67207891       5.58389035       7.48497413       0.00007834       0.00001848       0.00002602      -5.38563139
Si       0.00101639       6.69584014       1.96106855       0.00003871      -0.00007287      -0.00014343      -5.35648051
Si       0.00943255       6.70770499       4.32332327      -0.00001766      -0.00008440       0.00004843      -5.38855212
Si       0.00557904       8.93474201       5.11132507      -0.00003510       0.00003467       0.00004661      -5.38324581
Si       0.00102037       8.93482341       7.48599157       0.00004203      -0.00002745      -0.00002403      -5.38713712
Si       0.00061498      11.16816278       8.27986629      -0.00011064      -0.00003348      -0.00000306      -5.38478970
Si       0.00015669      11.16777122      10.65197671      -0.00001271       0.00002612       0.00004922      -5.38348025
Si       1.93429650       7.81785028       8.28089437       0.00002166       0.00004716      -0.00000692      -5.38446716
Si       1.93427616       7.81738351      10.65273619      -0.00003331       0.00007119       0.00001546      -5.38362552
Si       1.93929247      10.06557207       1.96063340      -0.00003087       0.00000664      -0.00005580      -5.36231821
Si       1.93525594      10.04952897       4.32066580       0.00005387       0.00003873      -0.00000124      -5.37960085
Si       1.93279279      12.28680609       5.11038387      -0.00007480      -0.00007425       0.00001917      -5.38922647
Si       1.93382818      12.28631048       7.48473969      -0.00005438       0.00002388       0.00003233      -5.38833875
Si       3.87677916       6.69165514       1.95688711      -0.00003888       0.00001522      -0.00003124      -5.34977222
Si       3.86269431       6.70634604       4.32137868       0.00017564      -0.00000103       0.00000791      -5.39298460
Si       3.86360489       8.93393993       5.11349006       0.00003712       0.00007019       0.00006514      -5.38460755
Si       3.86777443       8.93458608       7.48696047       0.00000029      -0.00001465       0.00001824      -5.38747940
Si       3.86753633      11.16830039       8.27955620      -0.00002153      -0.00004181      -0.00000449      -5.38474769
Si       3.86830812      11.16788175      10.65179712      -0.00001072       0.00003795       0.00001295      -5.38343827
Si       5.80224659       7.81773058       8.27981711       0.00003981       0.00002671      -0.00001439      -5.38402560
Si       5.80271658       7.81755267      10.65211004       0.00000288      -0.00000351       0.00000727      -5.38357736
Si       5.79586900      10.05161523       1.95174272      -0.00001699       0.00011385      -0.00000188      -5.39348359
Si       5.79713024      10.04766374       4.32100211       0.00004513       0.00002561      -0.00007852      -5.38807773
Si       5.79795550      12.28550154       5.11340586      -0.00014531       0.00007403      -0.00004221      -5.39019439
Si       5.80222415      12.28446013       7.48497413      -0.00007834       0.00001848       0.00002602      -5.38563139
Si       7.73883498       6.70680039       1.95222447       0.00003149       0.00000343      -0.00004544      -5.39569787
Si       7.73744881       6.70047950       4.32560958       0.00008501       0.00005982      -0.00007242      -5.39453759
Si       7.73698956       8.93466279       5.11665350       0.00003743       0.00000807       0.00004142      -5.38438402
Si       7.73716912       8.93410705       7.48737158       0.00003395      -0.00001485      -0.00000708      -5.38475601
Si       7.73687507      11.16816201       8.27896544      -0.00006259      -0.00005501      -0.00000955      -5.38336907
Si       7.73703207      11.16798719      10.65179416       0.00001277      -0.00002994       0.00002610      -5.38353348
Si       9.67234171       7.81772616       8.27927818      -0.00003454       0.00001840       0.00000780      -5.38378438
Si       9.67169886       7.81753342      10.65176125       0.00000529       0.00001042       0.00001558      -5.38351418
Si       9.67626104      10.05572958       1.95278045       0.00005913       0.00003910      -0.00006677      -5.37757961
Si       9.67576404      10.04885769       4.32312052       0.00000141      -0.00001112      -0.00001789      -5.38257864
Si       9.67494033      12.28552379       5.11568862      -0.00001830      -0.00002855       0.00000965      -5.38952063
Si       9.67156020      12.28450790       7.48643410      -0.00008874       0.00002009       0.00001250      -5.38586944
Si       0.00007204       0.00011664      11.44529903       0.00001938       0.00005602       0.00002709      -5.38358306
Si      11.60568749      13.40098318      13.81770208       0.00003380       0.00003045       0.00001130      -5.38352897
Si       0.00002399       2.23341854      14.61039796       0.00000402      -0.00000352       0.00005698      -5.38354550
Si      11.60570011       2.23306824      16.98279999      -0.00001683      -0.00005731       0.00001642      -5.38354106
Si      11.60563273       4.46647364      17.77613171       0.00004744       0.00001046      -0.00004452      -5.38346702
Si      11.60558274       4.46617583      20.14860419       0.00010853       0.00003248       0.00000139      -5.38438555
Si       1.93430315       1.11634735      17.77614592       0.00000608      -0.00001318      -0.00001347      -5.38355632
Si       1.93410307       1.11639022      20.14849767       0.00001461      -0.00006407      -0.00000216      -5.38408022
Si       1.93430954       3.35036910      11.44528196       0.00001346      -0.00000248       0.00004670      -5.38356709
Si       1.93437903       3.35023127      13.81779322      -0.00003590       0.00002434      -0.00002607      -5.38353047
Si       1.93432361       5.58367659      14.61076389      -0.00002483       0.00002122       0.00006816      -5.38350896
Si       1.93439875       5.58335578      16.98329055       0.00001362       0.00001327      -0.00000805      -5.38346342
Si       3.86848609       0.00015042      11.44530976       0.00001442       0.00003374       0.00002656      -5.38362901
Si       3.86859474      13.40100047      13.81781101      -0.00000099       0.00000474      -0.00002504      -5.38353217
Si       3.86865747       2.23336349      14.61075022      -0.00004230       0.00000939       0.00002410      -5.38350077
Si       3.86870147       2.23311374      16.98325093      -0.00005876      -0.00003764      -0.00000767      -5.38358659
Si       3.86872141       4.46653264      17.77639903      -0.00001244       0.00000328      -0.00002943      -5.38352780
Si       3.86913018       4.46637302      20.14892111      -0.00000341       0.00002476      -0.00001522      -5.38385468
Si       5.80302459       1.11635556      17.77638753      -0.00004927      -0.00001062      -0.00001798      -5.38345849
Si       5.80341140       1.11563308      20.14900499      -0.00003395      -0.00005149       0.00001941      -5.38400082
Si       5.80288176       3.35045976      11.44483306      -0.00000104       0.00000261      -0.00003158      -5.38344830
Si       5.80285720       3.35012497      13.81740613      -0.00003030      -0.00000519      -0.00006975      -5.38353662
Si       5.80295416       5.58355975      14.61039738      -0.00004631       0.00000290       0.00005313      -5.38352475
Si       5.80291796       5.58329086      16.98289916      -0.00001752       0.00003126      -0.00000221      -5.38356015
Si       7.73705337       0.00021404      11.44489779       0.00001316       0.00003220      -0.00003582      -5.38351404
Si       7.73710536      13.40101996      13.81739485       0.00001546      -0.00004350      -0.00002273      -5.38351530
Si       7.73713919       2.23338653      14.61030994      -0.00003232      -0.00002441      -0.00001468      -5.38353358
Si       7.73715807       2.23308975      16.98280310       0.00002284      -0.00006540      -0.00001761      -5.38360385
Si       7.73722669       4.46650936      17.77631654       0.00000397      -0.00001646      -0.00004296      -5.38344975
Si       7.73715349       4.46596340      20.14859375       0.00006292       0.00005347       0.00001074      -5.38460116
Si       9.67136138       1.11627200      17.77519209       0.00000859      -0.00004287       0.00001355      -5.38370921
Si       9.67129690       1.11618995      20.14686983       0.00007684      -0.00000577       0.00004906      -5.38420106
Si       9.67157022       3.35054232      11.44489781      -0.00001001      -0.00001558      -0.00002406      -5.38348192
Si       9.67146510       3.35022411      13.81744717      -0.00000872      -0.00003190      -0.00003889      -5.38349411
Si       9.67139466       5.58364045      14.61057087       0.00001519      -0.00000979       0.00000600      -5.38352156
Si       9.67136175       5.58341734      16.98318449       0.00003555      -0.00000990      -0.00003193      -5.38347373
Si       0.00008967       6.70072019      11.44530976      -0.00001442       0.00003374       0.00002656      -5.38362901
Si      11.60570832       6.70043069      13.81781101       0.00000099       0.00000474      -0.00002504      -5.38353217
Si      11.60564559       8.93393327      14.61075022       0.00004230       0.00000939       0.00002410      -5.38350077
Si      11.60560159       8.93368351      16.98325093       0.00005876      -0.00003764      -0.00000767      -5.38358659
Si      11.60558165      11.16710241      17.77639903       0.00001244       0.00000328      -0.00002943      -5.38352780
Si      11.60517288      11.16694280      20.14892111       0.00000341       0.00002476      -0.00001522      -5.38385468
Si       1.93427261       7.81691713      17.77614592      -0.00000608      -0.00001318      -0.00001347      -5.38355632
Si       1.93447269       7.81696000      20.14849767      -0.00001461      -0.00006407      -0.00000216      -5.38408022
Si       1.93426623      10.05093888      11.44528196      -0.00001346      -0.00000248       0.00004670      -5.38356709
Si       1.93419673      10.05080105      13.81779322       0.00003590       0.00002434      -0.00002607      -5.38353047
Si       1.93425216      12.28424637      14.61076389       0.00002483       0.00002122       0.00006816      -5.38350896
Si       1.93417702      12.28392556      16.98329055      -0.00001362       0.00001327      -0.00000805      -5.38346342
Si       3.86850373       6.70068642      11.44529903      -0.00001938       0.00005602       0.00002709      -5.38358306
Si       3.86861557       6.70041340      13.81770208      -0.00003380       0.00003045       0.00001130      -5.38352897
Si       3.86855178       8.93398832      14.61039796      -0.00000402      -0.00000352       0.00005698      -5.38354550
Si       3.86860295       8.93363801      16.98279999       0.00001683      -0.00005731       0.00001642      -5.38354106
Si       3.86867033      11.16704342      17.77613171      -0.00004744       0.00001046      -0.00004452      -5.38346702
Si       3.86872032      11.16674561      20.14860419      -0.00010853       0.00003248       0.00000139      -5.38438555
Si       5.80294168       7.81684178      17.77519209      -0.00000859      -0.00004287       0.00001355      -5.38370921
Si       5.80300616       7.81675972      20.14686983      -0.00007684      -0.00000577       0.00004906      -5.38420106
Si       5.80273284      10.05111209      11.44489781       0.00001001      -0.00001558      -0.00002406      -5.38348192
Si       5.80283796      10.05079389      13.81744717       0.00000872      -0.00003190      -0.00003889      -5.38349411
Si       5.80290840      12.28421022      14.61057087      -0.00001519      -0.00000979       0.00000600      -5.38352156
Si       5.80294131      12.28398712      16.98318449      -0.00003555      -0.00000990      -0.00003193      -5.38347373
Si       7.73724969       6.70078382      11.44489779      -0.00001316       0.00003220      -0.00003582      -5.38351404
Si       7.73719770       6.70045018      13.81739485      -0.00001546      -0.00004350      -0.00002273      -5.38351530
Si       7.73716387       8.93395631      14.61030994       0.00003232      -0.00002441      -0.00001468      -5.38353358
Si       7.73714499       8.93365952      16.98280310      -0.00002284      -0.00006540      -0.00001761      -5.38360385
Si       7.73707637      11.16707914      17.77631654      -0.00000397      -0.00001646      -0.00004296      -5.38344975
Si       7.73714957      11.16653318      20.14859375      -0.00006292       0.00005347       0.00001074      -5.38460116
Si       9.67127847       7.81692534      17.77638753       0.00004927      -0.00001062      -0.00001798      -5.38345849
Si       9.67089166       7.81620285      20.14900499       0.00003395      -0.00005149       0.00001941      -5.38400082
Si       9.67142130      10.05102954      11.44483306       0.00000104       0.00000261      -0.00003158      -5.38344830
Si       9.67144586      10.05069475      13.81740613       0.00003030      -0.00000519      -0.00006975      -5.38353662
Si       9.67134890      12.28412953      14.61039738       0.00004631       0.00000290       0.00005313      -5.38352475
Si       9.67138510      12.28386064      16.98289916       0.00001752       0.00003126      -0.00000221      -5.38356015
