216
Lattice="11.605727294873521 0.0 0.0 0.0 13.401139555673227 0.0 0.0 0.0 28.428109966331448" Properties=species:S:1:pos:R:3:forces:R:3 energy=-1163.782588411666 free_energy=-1163.782588411666 pbc="T T T"
Si       0.00000000       0.00000000      20.92624761       0.00002152       0.00004148      -0.00001623
Si      11.60572729      13.40113956      23.29525678       0.00006809       0.00011005      -0.00006377
Si      11.60572729       2.23352326      24.08492650      -0.00000155      -0.00003311       0.00004030
Si      11.60572729       2.23352326      26.45393566      -0.00001112       0.00004225       0.00000026
Si      11.60572729       4.46704652      27.24360538      -0.00002794      -0.00000616      -0.00002572
Si       0.00000000       4.46704652       1.18450458      -0.00009501       0.00003947       0.00001197
Si       1.93428788       1.11676163      27.24360538      -0.00003000      -0.00008116      -0.00001618
P        1.93428788       1.11676163       1.18450458      -0.00004057      -0.00000379      -0.00004977
Si       1.93428788       3.35028489      20.92624761       0.00005566       0.00003023      -0.00004214
Si       1.93428788       3.35028489      23.29525678      -0.00006775       0.00002151      -0.00007302
Si       1.93428788       5.58380815      24.08492650       0.00003935       0.00001562      -0.00003314
Si       1.93428788       5.58380815      26.45393566      -0.00012174       0.00008884       0.00008930
Si       3.86857576      13.40113956      20.92624761       0.00002662       0.00003129       0.00000038
Si       3.86857576      13.40113956      23.29525678       0.00002148       0.00008490       0.00002177
Si       3.86857576       2.23352326      24.08492650       0.00009631      -0.00005240       0.00003056
Si       3.86857576       2.23352326      26.45393566      -0.00005469       0.00008024       0.00002871
Si       3.86857576       4.46704652      27.24360538       0.00009970      -0.00012083      -0.00004868
Si       3.86857576       4.46704652       1.18450458      -0.00009970       0.00012083       0.00004868
Si       5.80286365       1.11676163      27.24360538       0.00004480      -0.00007801      -0.00003856
Si       5.80286365       1.11676163       1.18450458       0.00007103       0.00001769       0.00002609
Si       5.80286365       3.35028489      20.92624761       0.00005738       0.00001595      -0.00001903
Si       5.80286365       3.35028489      23.29525678       0.00005277       0.00000247       0.00004011
Si       5.80286365       5.58380815      24.08492650       0.00013147      -0.00005387       0.00002968
Si       5.80286365       5.58380815      26.45393566       0.00002904       0.00003462       0.00005687
Si       7.73715153      13.40113956      20.92624761       0.00007696       0.00002498      -0.00003658
Si       7.73715153      13.40113956      23.29525678       0.00005859       0.00001811       0.00004681
Si       7.73715153       2.23352326      24.08492650       0.00005524      -0.00004091       0.00002591
Si       7.73715153       2.23352326      26.45393566       0.00012059       0.00001018       0.00005802
Si       7.73715153       4.46704652      27.24360538       0.00009501      -0.00003947      -0.00001197
Si       7.73715153       4.46704652       1.18450458       0.00002794       0.00000616       0.00002572
P        9.67143941       1.11676163      27.24360538       0.00003352      -0.00000117      -0.00003601
Si       9.67143941       1.11676163       1.18450458      -0.00000004      -0.00002609      -0.00003088
Si       9.67143941       3.35028489      20.92624761       0.00004464      -0.00002721      -0.00006261
Si       9.67143941       3.35028489      23.29525678       0.00013178      -0.00005175      -0.00003181
Si       9.67143941       5.58380815      24.08492650       0.00003934       0.00002988       0.00000030
Si       9.67143941       5.58380815      26.45393566       0.00000916      -0.00004023       0.00008615
Si      11.60572729       6.70056978      20.92624761       0.00005702       0.00001122      -0.00001867
Si      11.60572729       6.70056978      23.29525678      -0.00000931      -0.00003228       0.00006168
Si      11.60572729       8.93409304      24.08492650       0.00001593       0.00006868       0.00000954
Si      11.60572729       8.93409304      26.45393566      -0.00001288       0.00003502       0.00009879
Si      11.60572729      11.16761630      27.24360538      -0.00001691       0.00002964      -0.00000613
Si       0.00000000      11.16761630       1.18450458      -0.00003115      -0.00001254      -0.00002591
Si       1.93428788       7.81733141      27.24360538      -0.00007103      -0.00001769      -0.00002609
P        1.93428788       7.81733141       1.18450458      -0.00004480       0.00007801       0.00003856
Si       1.93428788      10.05085467      20.92624761       0.00001291       0.00005661      -0.00001881
Si       1.93428788      10.05085467      23.29525678       0.00005441       0.00003546       0.00001529
Si       1.93428788      12.28437793      24.08492650      -0.00002521       0.00004349       0.00005087
Si       1.93428788      12.28437793      26.45393566       0.00000843       0.00014227      -0.00000032
Si       3.86857576       6.70056978      20.92624761       0.00005359      -0.00000366       0.00000309
Si       3.86857576       6.70056978      23.29525678       0.00003224       0.00012391       0.00006026
Si       3.86857576       8.93409304      24.08492650      -0.00001232      -0.00001667       0.00001457
Si       3.86857576       8.93409304      26.45393566       0.00007957       0.00005385       0.00008796
Si       3.86857576      11.16761630      27.24360538      -0.00011399      -0.00005874      -0.00001987
Si       3.86857576      11.16761630       1.18450458       0.00011399       0.00005874       0.00001987
P        5.80286365       7.81733141      27.24360538       0.00004057       0.00000379       0.00004977
Si       5.80286365       7.81733141       1.18450458       0.00003000       0.00008116       0.00001618
Si       5.80286365      10.05085467      20.92624761       0.00003665       0.00001849      -0.00003668
Si       5.80286365      10.05085467      23.29525678       0.00009410      -0.00000587      -0.00000441
Si       5.80286365      12.28437793      24.08492650       0.00001440       0.00004486      -0.00000396
Si       5.80286365      12.28437793      26.45393566       0.00013480       0.00002017       0.00003929
Si       7.73715153       6.70056978      20.92624761       0.00006230      -0.00002920       0.00001343
Si       7.73715153       6.70056978      23.29525678       0.00006907       0.00005645       0.00004239
Si       7.73715153       8.93409304      24.08492650       0.00008391      -0.00000939       0.00003572
Si       7.73715153       8.93409304      26.45393566      -0.00004098      -0.00002513       0.00006793
Si       7.73715153      11.16761630      27.24360538       0.00003115       0.00001254       0.00002591
Si       7.73715153      11.16761630       1.18450458       0.00001691      -0.00002964       0.00000613
Si       9.67143941       7.81733141      27.24360538       0.00000004       0.00002609       0.00003088
Si       9.67143941       7.81733141       1.18450458      -0.00003352       0.00000117       0.00003601
Si       9.67143941      10.05085467      20.92624761       0.00007836       0.00004806      -0.00002354
Si       9.67143941      10.05085467      23.29525678      -0.00001567      -0.00004111      -0.00001462
Si       9.67143941      12.28437793      24.08492650       0.00004487       0.00003876       0.00001649
Si       9.67143941      12.28437793      26.45393566      -0.00000646      -0.00000562       0.00002813
Si      11.60572729      13.40113956       1.97417430       0.00004098       0.00002513      -0.00006793
Si      11.60572729      13.40113956       4.34318347      -0.00008391       0.00000939      -0.00003572
Si      11.60572729       2.23352326       5.13285319      -0.00006907      -0.00005645      -0.00004239
Si      11.60572729       2.23352326       7.50186235      -0.00006230       0.00002920      -0.00001343
Si      11.60572729       4.46704652       8.29153207      -0.00010610      -0.00002511       0.00007050
Si       0.00000000       4.46704652      10.66054124      -0.00004146       0.00000453      -0.00002338
Si       1.93428788       1.11676163       8.29153207      -0.00007312      -0.00009749       0.00002693
Si       1.93428788       1.11676163      10.66054124       0.00000189      -0.00005018       0.00001157
Si       1.93428788       3.35028489       1.97417430      -0.00002904      -0.00003462      -0.00005687
Si       1.93428788       3.35028489       4.34318347      -0.00013147       0.00005387      -0.00002968
Si       1.93428788       5.58380815       5.13285319      -0.00005277      -0.00000247      -0.00004011
Si       1.93428788       5.58380815       7.50186235      -0.00005738      -0.00001595       0.00001903
Si       3.86857576      13.40113956       1.97417430      -0.00007957      -0.00005385      -0.00008796
Si       3.86857576      13.40113956       4.34318347       0.00001232       0.00001667      -0.00001457
Si       3.86857576       2.23352326       5.13285319      -0.00003224      -0.00012391      -0.00006026
Si       3.86857576       2.23352326       7.50186235      -0.00005359       0.00000366      -0.00000309
Si       3.86857576       4.46704652       8.29153207       0.00002375      -0.00002181       0.00006363
Si       3.86857576       4.46704652      10.66054124       0.00003105       0.00001644      -0.00001382
Si       5.80286365       1.11676163       8.29153207      -0.00005894      -0.00002734       0.00004964
Si       5.80286365       1.11676163      10.66054124      -0.00002726       0.00001976       0.00003311
Si       5.80286365       3.35028489       1.97417430       0.00012174      -0.00008884      -0.00008930
Si       5.80286365       3.35028489       4.34318347      -0.00003935      -0.00001562       0.00003314
Si       5.80286365       5.58380815       5.13285319       0.00006775      -0.00002151       0.00007302
Si       5.80286365       5.58380815       7.50186235      -0.00005566      -0.00003023       0.00004214
Si       7.73715153      13.40113956       1.97417430       0.00001288      -0.00003502      -0.00009879
Si       7.73715153      13.40113956       4.34318347      -0.00001593      -0.00006868      -0.00000954
Si       7.73715153       2.23352326       5.13285319       0.00000931       0.00003228      -0.00006168
Si       7.73715153       2.23352326       7.50186235      -0.00005702      -0.00001122       0.00001867
Si       7.73715153       4.46704652       8.29153207      -0.00005098       0.00006589       0.00002477
Si       7.73715153       4.46704652      10.66054124      -0.00005927       0.00003138       0.00004900
Si       9.67143941       1.11676163       8.29153207      -0.00000086      -0.00002220       0.00004189
Si       9.67143941       1.11676163      10.66054124      -0.00005036      -0.00000921       0.00004642
Si       9.67143941       3.35028489       1.97417430      -0.00000916       0.00004023      -0.00008615
Si       9.67143941       3.35028489       4.34318347      -0.00003934      -0.00002988      -0.00000030
Si       9.67143941       5.58380815       5.13285319      -0.00013178       0.00005175       0.00003181
Si       9.67143941       5.58380815       7.50186235      -0.00004464       0.00002721       0.00006261
Si      11.60572729       6.70056978       1.97417430      -0.00012059      -0.00001018      -0.00005802
Si      11.60572729       6.70056978       4.34318347      -0.00005524       0.00004091      -0.00002591
Si      11.60572729       8.93409304       5.13285319      -0.00005859      -0.00001811      -0.00004681
Si      11.60572729       8.93409304       7.50186235      -0.00007696      -0.00002498       0.00003658
Si      11.60572729      11.16761630       8.29153207      -0.00005094       0.00004432       0.00000248
Si       0.00000000      11.16761630      10.66054124      -0.00001474      -0.00002628       0.00005119
Si       1.93428788       7.81733141       8.29153207      -0.00003656      -0.00002619      -0.00001345
Si       1.93428788       7.81733141      10.66054124       0.00000651      -0.00002214       0.00003329
Si       1.93428788      10.05085467       1.97417430      -0.00013480      -0.00002017      -0.00003929
Si       1.93428788      10.05085467       4.34318347      -0.00001440      -0.00004486       0.00000396
Si       1.93428788      12.28437793       5.13285319      -0.00009410       0.00000587       0.00000441
Si       1.93428788      12.28437793       7.50186235      -0.00003665      -0.00001849       0.00003668
Si       3.86857576       6.70056978       1.97417430       0.00005469      -0.00008024      -0.00002871
Si       3.86857576       6.70056978       4.34318347      -0.00009631       0.00005240      -0.00003056
Si       3.86857576       8.93409304       5.13285319      -0.00002148      -0.00008490      -0.00002177
Si       3.86857576       8.93409304       7.50186235      -0.00002662      -0.00003129      -0.00000038
Si       3.86857576      11.16761630       8.29153207      -0.00005852       0.00001223       0.00000975
Si       3.86857576      11.16761630      10.66054124      -0.00001325      -0.00001074       0.00002124
Si       5.80286365       7.81733141       8.29153207       0.00004155      -0.00006772      -0.00004075
Si       5.80286365       7.81733141      10.66054124      -0.00001739      -0.00004309       0.00003149
Si       5.80286365      10.05085467       1.97417430      -0.00000843      -0.00014227       0.00000032
Si       5.80286365      10.05085467       4.34318347       0.00002521      -0.00004349      -0.00005087
Si       5.80286365      12.28437793       5.13285319      -0.00005441      -0.00003546      -0.00001529
Si       5.80286365      12.28437793       7.50186235      -0.00001291      -0.00005661       0.00001881
Si       7.73715153       6.70056978       1.97417430       0.00001112      -0.00004225      -0.00000026
Si       7.73715153       6.70056978       4.34318347       0.00000155       0.00003311      -0.00004030
Si       7.73715153       8.93409304       5.13285319      -0.00006809      -0.00011005       0.00006377
Si       7.73715153       8.93409304       7.50186235      -0.00002152      -0.00004148       0.00001623
Si       7.73715153      11.16761630       8.29153207      -0.00003420      -0.00001245       0.00000286
Si       7.73715153      11.16761630      10.66054124      -0.00005283      -0.00000320       0.00003443
Si       9.67143941       7.81733141       8.29153207      -0.00014713      -0.00003831      -0.00000675
Si       9.67143941       7.81733141      10.66054124      -0.00006643      -0.00004353       0.00002660
Si       9.67143941      10.05085467       1.97417430       0.00000646       0.00000562      -0.00002813
Si       9.67143941      10.05085467       4.34318347      -0.00004487      -0.00003876      -0.00001649
Si       9.67143941      12.28437793       5.13285319       0.00001567       0.00004111       0.00001462
Si       9.67143941      12.28437793       7.50186235      -0.00007836      -0.00004806       0.00002354
Si      11.60572729      13.40113956      11.45021096      -0.00003334       0.00000486      -0.00004889
Si      11.60572729      13.40113956      13.81922012       0.00001617      -0.00001950      -0.00001178
Si      11.60572729       2.23352326      14.60888984       0.00001950       0.00003074       0.00003572
Si      11.60572729       2.23352326      16.97789901       0.00002059       0.00002269      -0.00000949
Si      11.60572729       4.46704652      17.76756873       0.00005927      -0.00003138      -0.00004900
Si       0.00000000       4.46704652      20.13657789       0.00005098      -0.00006589      -0.00002477
Si       1.93428788       1.11676163      17.76756873       0.00001739       0.00004309      -0.00003149
Si       1.93428788       1.11676163      20.13657789      -0.00004155       0.00006772       0.00004075
Si       1.93428788       3.35028489      11.45021096      -0.00001045       0.00001400      -0.00006231
Si       1.93428788       3.35028489      13.81922012       0.00002789       0.00000052       0.00001715
Si       1.93428788       5.58380815      14.60888984       0.00001742      -0.00000160      -0.00005366
Si       1.93428788       5.58380815      16.97789901       0.00002418      -0.00000212       0.00004237
Si       3.86857576      13.40113956      11.45021096      -0.00000263       0.00000718      -0.00002690
Si       3.86857576      13.40113956      13.81922012      -0.00000056       0.00003392      -0.00002519
Si       3.86857576       2.23352326      14.60888984       0.00000817       0.00001353       0.00002854
Si       3.86857576       2.23352326      16.97789901      -0.00000847       0.00006151      -0.00003489
Si       3.86857576       4.46704652      17.76756873      -0.00003105      -0.00001644       0.00001382
Si       3.86857576       4.46704652      20.13657789      -0.00002375       0.00002181      -0.00006363
Si       5.80286365       1.11676163      17.76756873      -0.00000651       0.00002214      -0.00003329
Si       5.80286365       1.11676163      20.13657789       0.00003656       0.00002619       0.00001345
Si       5.80286365       3.35028489      11.45021096      -0.00002418       0.00000212      -0.00004237
Si       5.80286365       3.35028489      13.81922012      -0.00001742       0.00000160       0.00005366
Si       5.80286365       5.58380815      14.60888984      -0.00002789      -0.00000052      -0.00001715
Si       5.80286365       5.58380815      16.97789901       0.00001045      -0.00001400       0.00006231
Si       7.73715153      13.40113956      11.45021096      -0.00002719       0.00002669      -0.00003544
Si       7.73715153      13.40113956      13.81922012      -0.00001492       0.00004065       0.00003169
Si       7.73715153       2.23352326      14.60888984      -0.00001806       0.00000880      -0.00001567
Si       7.73715153       2.23352326      16.97789901       0.00005803       0.00003406       0.00000991
Si       7.73715153       4.46704652      17.76756873       0.00004146      -0.00000453       0.00002338
Si       7.73715153       4.46704652      20.13657789       0.00010610       0.00002511      -0.00007050
Si       9.67143941       1.11676163      17.76756873       0.00006643       0.00004353      -0.00002660
Si       9.67143941       1.11676163      20.13657789       0.00014713       0.00003831       0.00000675
Si       9.67143941       3.35028489      11.45021096      -0.00002408       0.00000508      -0.00007949
Si       9.67143941       3.35028489      13.81922012      -0.00000951      -0.00002510       0.00005293
Si       9.67143941       5.58380815      14.60888984       0.00000951       0.00002510      -0.00005293
Si       9.67143941       5.58380815      16.97789901       0.00002408      -0.00000508       0.00007949
Si      11.60572729       6.70056978      11.45021096      -0.00005803      -0.00003406      -0.00000991
Si      11.60572729       6.70056978      13.81922012       0.00001806      -0.00000880       0.00001567
Si      11.60572729       8.93409304      14.60888984       0.00001492      -0.00004065      -0.00003169
Si      11.60572729       8.93409304      16.97789901       0.00002719      -0.00002669       0.00003544
Si      11.60572729      11.16761630      17.76756873       0.00005283       0.00000320      -0.00003443
Si       0.00000000      11.16761630      20.13657789       0.00003420       0.00001245      -0.00000286
Si       1.93428788       7.81733141      17.76756873       0.00002726      -0.00001976      -0.00003311
Si       1.93428788       7.81733141      20.13657789       0.00005894       0.00002734      -0.00004964
Si       1.93428788      10.05085467      11.45021096      -0.00001118      -0.00003815      -0.00000235
Si       1.93428788      10.05085467      13.81922012       0.00000686      -0.00001274       0.00000200
Si       1.93428788      12.28437793      14.60888984       0.00002640      -0.00002993       0.00004244
Si       1.93428788      12.28437793      16.97789901      -0.00000605      -0.00000271      -0.00001318
Si       3.86857576       6.70056978      11.45021096       0.00000847      -0.00006151       0.00003489
Si       3.86857576       6.70056978      13.81922012      -0.00000817      -0.00001353      -0.00002854
Si       3.86857576       8.93409304      14.60888984       0.00000056      -0.00003392       0.00002519
Si       3.86857576       8.93409304      16.97789901       0.00000263      -0.00000718       0.00002690
Si       3.86857576      11.16761630      17.76756873       0.00001325       0.00001074      -0.00002124
Si       3.86857576      11.16761630      20.13657789       0.00005852      -0.00001223      -0.00000975
Si       5.80286365       7.81733141      17.76756873      -0.00000189       0.00005018      -0.00001157
Si       5.80286365       7.81733141      20.13657789       0.00007312       0.00009749      -0.00002693
Si       5.80286365      10.05085467      11.45021096       0.00000605       0.00000271       0.00001318
Si       5.80286365      10.05085467      13.81922012      -0.00002640       0.00002993      -0.00004244
Si       5.80286365      12.28437793      14.60888984      -0.00000686       0.00001274      -0.00000200
Si       5.80286365      12.28437793      16.97789901       0.00001118       0.00003815       0.00000235
Si       7.73715153       6.70056978      11.45021096      -0.00002059      -0.00002269       0.00000949
Si       7.73715153       6.70056978      13.81922012      -0.00001950      -0.00003074      -0.00003572
Si       7.73715153       8.93409304      14.60888984      -0.00001617       0.00001950       0.00001178
Si       7.73715153       8.93409304      16.97789901       0.00003334      -0.00000486       0.00004889
Si       7.73715153      11.16761630      17.76756873       0.00001474       0.00002628      -0.00005119
Si       7.73715153      11.16761630      20.13657789       0.00005094      -0.00004432      -0.00000248
Si       9.67143941       7.81733141      17.76756873       0.00005036       0.00000921      -0.00004642
Si       9.67143941       7.81733141      20.13657789       0.00000086       0.00002220      -0.00004189
Si       9.67143941      10.05085467      11.45021096      -0.00006830      -0.00001349      -0.00002120
Si       9.67143941      10.05085467      13.81922012       0.00000969      -0.00000542       0.00001569
Si       9.67143941      12.28437793      14.60888984      -0.00000969       0.00000542      -0.00001569
Si       9.67143941      12.28437793      16.97789901       0.00006830       0.00001349       0.00002120
