216
Lattice="11.605727294873521 0.0 0.0 0.0 13.401139555673227 0.0 0.0 0.0 28.428109966331448" Properties=species:S:1:pos:R:3:forces:R:3:energies:R:1 energy=-1163.3270259940728 stress="0.0005182994028093439 -1.0117887629050854e-17 1.3193603779737996e-17 -1.0117887629050854e-17 0.000519759018738342 2.6168025108237282e-08 1.3193603779737996e-17 2.6168025108237282e-08 0.0005243579478372939" free_energy=-1163.3270259940728 pbc="T T T"
Si       0.00000000       0.00002468      20.92957602       0.00000000      -0.00003538      -0.00004928      -5.38416796
Si       0.00000000       0.00002207      23.29852642       0.00000000       0.00003269       0.00000958      -5.38299706
Si       0.00000000       2.23488810      24.08731704       0.00000000       0.00000940       0.00000279      -5.38433488
Si       0.00000000       2.23389915      26.45580660       0.00000000       0.00004487       0.00006946      -5.38491323
Si       0.00000000       4.46903974      27.24383495      -0.00000000      -0.00000594      -0.00004174      -5.38914855
Si      11.60572729       4.46638462       1.18352110       0.00000000       0.00008511      -0.00007657      -5.38612011
Si       1.93573380       1.11581447      27.24197431      -0.00004717       0.00002492      -0.00004640      -5.38645583
Si       1.93501441       1.11670451       1.18301454      -0.00002064       0.00003687      -0.00001100      -5.38525961
Si       1.93471949       3.35111067      20.93033110       0.00001459       0.00001718      -0.00001068      -5.38396222
Si       1.93573373       3.35272622      23.29993914      -0.00003274      -0.00003477      -0.00001721      -5.38327181
Si       1.94002005       5.58823842      24.09270242       0.00001225       0.00002029      -0.00000235      -5.37962507
Si       1.93954508       5.58741474      26.45873717      -0.00001062       0.00000048       0.00000224      -5.38434456
Si       3.86884309      13.40051417      20.93031394      -0.00004784       0.00000281      -0.00002672      -5.38408994
Si       3.86993451      13.39913922      23.29988235      -0.00000378       0.00005160       0.00005481      -5.38306061
Si       3.86935670       2.23275860      24.08742549      -0.00002464       0.00001652       0.00001688      -5.38614563
Si       3.86981130       2.23847410      26.45658381      -0.00002669      -0.00011910      -0.00000928      -5.38916951
Si       3.86975544       4.47658232      27.24579430      -0.00006408       0.00006876       0.00004142      -5.38281338
Si       3.86986250       4.47365503       1.17880029       0.00002709       0.00000235      -0.00003310      -5.38394733
Si       5.80286365       1.11505185      27.24309792      -0.00000000       0.00002811      -0.00000142      -5.38871253
Si       5.80286365       1.12051398       1.18263078      -0.00000000      -0.00011068      -0.00002774      -5.38450788
Si       5.80286365       3.35021929      20.93137187       0.00000000       0.00007771       0.00003068      -5.38511297
Si       5.80286365       3.35497382      23.30101140       0.00000000      -0.00011181       0.00003202      -5.38850193
Si       5.80286365       5.59273205      24.09153305      -0.00000000       0.00009443       0.00005099      -5.38308631
Si       5.80286365       5.57769234      26.45264188      -0.00000000      -0.00008154      -0.00001655      -5.36133583
Si       7.73688421      13.40051417      20.93031394       0.00004784       0.00000281      -0.00002672      -5.38408994
Si       7.73579279      13.39913922      23.29988235       0.00000378       0.00005160       0.00005481      -5.38306061
Si       7.73637060       2.23275860      24.08742549       0.00002464       0.00001652       0.00001688      -5.38614563
Si       7.73591599       2.23847410      26.45658381       0.00002669      -0.00011910      -0.00000928      -5.38916951
Si       7.73597185       4.47658232      27.24579430       0.00006408       0.00006876       0.00004142      -5.38281338
Si       7.73586479       4.47365503       1.17880029      -0.00002709       0.00000235      -0.00003310      -5.38394733
Si       9.66999350       1.11581447      27.24197431       0.00004717       0.00002492      -0.00004640      -5.38645583
Si       9.67071289       1.11670451       1.18301454       0.00002064       0.00003687      -0.00001100      -5.38525961
Si       9.67100781       3.35111067      20.93033110      -0.00001459       0.00001718      -0.00001068      -5.38396222
Si       9.66999356       3.35272622      23.29993914       0.00003274      -0.00003477      -0.00001721      -5.38327181
Si       9.66570724       5.58823842      24.09270242      -0.00001225       0.00002029      -0.00000235      -5.37962507
Si       9.66618222       5.58741474      26.45873717       0.00001062       0.00000048       0.00000224      -5.38434456
Si       0.00000000       6.70099556      20.93134680      -0.00000000       0.00001123      -0.00001491      -5.38406604
Si       0.00000000       6.70110210      23.30143077      -0.00000000      -0.00002330       0.00002440      -5.38297038
Si       0.00000000       8.93478968      24.08776325      -0.00000000       0.00003916       0.00003063      -5.38842832
Si       0.00000000       8.93028359      26.45750095      -0.00000000       0.00011985      -0.00004474      -5.39302429
Si      11.60572729      11.16725515      27.24224549       0.00000000      -0.00000910      -0.00005228      -5.38825560
Si      11.60572729      11.16434231       1.18139948      -0.00000000       0.00001429      -0.00000216      -5.38330165
Si       1.94143177       7.81469532      27.24516944       0.00003731      -0.00001761       0.00005995      -5.38441220
Si       1.93950125       7.81487538       1.17834624       0.00003237       0.00001962      -0.00001356      -5.38441098
Si       1.93424629      10.05054065      20.93157030      -0.00002585       0.00001170      -0.00001180      -5.38535011
Si       1.93803618      10.04808802      23.30113630      -0.00008872      -0.00000319      -0.00000683      -5.38809691
Si       1.93405601      12.28378857      24.08729965      -0.00003461      -0.00002346       0.00001422      -5.38660925
Si       1.93823960      12.28104986      26.45627684      -0.00012243       0.00005876       0.00002635      -5.38820059
Si       3.86943626       6.70110740      20.93127112      -0.00000923      -0.00005408      -0.00000621      -5.38659226
Si       3.87303595       6.70325908      23.30331033      -0.00003750       0.00003786       0.00009885      -5.38335948
Si       3.87595037       8.92950239      24.09160616       0.00009368      -0.00006845      -0.00000097      -5.38344485
Si       3.86250120       8.93711927      26.45270357      -0.00003859      -0.00000182       0.00000294      -5.36059588
Si       3.87602209      11.16169006      27.24598624       0.00007445      -0.00004386       0.00006500      -5.38344516
Si       3.87322700      11.16346877       1.17892229      -0.00002045      -0.00005916      -0.00001296      -5.38341974
P        5.80286365       7.81725940      27.24369762       0.00000000       0.00001019       0.00001492      -5.81812246
Si       5.80286365       7.81747176       1.18928229      -0.00000000       0.00000005       0.00004125      -5.36192077
Si       5.80286365      10.04961164      20.93120664      -0.00000000       0.00000554      -0.00002882      -5.38663957
Si       5.80286365      10.04488141      23.30331822      -0.00000000      -0.00001266       0.00005937      -5.38331865
Si       5.80286365      12.27646925      24.09242920      -0.00000000      -0.00001665      -0.00000491      -5.37992978
Si       5.80286365      12.27778885      26.45839966      -0.00000000      -0.00004586      -0.00000305      -5.38335421
Si       7.73629104       6.70110740      20.93127112       0.00000923      -0.00005408      -0.00000621      -5.38659226
Si       7.73269135       6.70325908      23.30331033       0.00003750       0.00003786       0.00009885      -5.38335948
Si       7.72977693       8.92950239      24.09160616      -0.00009368      -0.00006845      -0.00000097      -5.38344485
Si       7.74322610       8.93711927      26.45270357       0.00003859      -0.00000182       0.00000294      -5.36059588
Si       7.72970521      11.16169006      27.24598624      -0.00007445      -0.00004386       0.00006500      -5.38344516
Si       7.73250029      11.16346877       1.17892229       0.00002045      -0.00005916      -0.00001296      -5.38341974
Si       9.66429552       7.81469532      27.24516944      -0.00003731      -0.00001761       0.00005995      -5.38441220
Si       9.66622605       7.81487538       1.17834624      -0.00003237       0.00001962      -0.00001356      -5.38441098
Si       9.67148101      10.05054065      20.93157030       0.00002585       0.00001170      -0.00001180      -5.38535011
Si       9.66769111      10.04808802      23.30113630       0.00008872      -0.00000319      -0.00000683      -5.38809691
Si       9.67167129      12.28378857      24.08729965       0.00003461      -0.00002346       0.00001422      -5.38660925
Si       9.66748770      12.28104986      26.45627684       0.00012243       0.00005876       0.00002635      -5.38820059
Si       0.00000000      13.39963050       1.97080331      -0.00000000       0.00007215       0.00000037      -5.38357704
Si       0.00000000      13.40038088       4.33960457       0.00000000       0.00003225       0.00002235      -5.38413151
Si       0.00000000       2.23354490       5.12937421      -0.00000000       0.00005288      -0.00001741      -5.38303263
Si       0.00000000       2.23360793       7.49907783      -0.00000000       0.00000310      -0.00000623      -5.38380673
Si       0.00000000       4.46735889       8.28885378      -0.00000000       0.00003651       0.00001764      -5.38343943
Si      11.60572729       4.46714198      10.65885386      -0.00000000       0.00001435       0.00002731      -5.38355670
Si       1.93438829       1.11668479       8.28920341       0.00000071      -0.00001522       0.00002674      -5.38342280
Si       1.93430350       1.11672757      10.65910689       0.00003315      -0.00000411       0.00003906      -5.38357256
Si       1.93578219       3.35142141       1.97079616      -0.00002683      -0.00003531       0.00001378      -5.38613327
Si       1.93457041       3.35071792       4.33960513      -0.00006776       0.00002236      -0.00004799      -5.38472634
Si       1.93580598       5.58514404       5.12883625       0.00000617       0.00007665       0.00002583      -5.38469286
Si       1.93451623       5.58411465       7.49834079       0.00000935       0.00003814      -0.00000927      -5.38364127
Si       3.87001625      13.40008858       1.97045432      -0.00005176       0.00001718       0.00001274      -5.38653719
Si       3.86912034       0.00003961       4.33943122      -0.00004165      -0.00005292      -0.00005123      -5.38461503
Si       3.86921918       2.23399974       5.12908235      -0.00004178      -0.00002797      -0.00000768      -5.38347355
Si       3.86883569       2.23350400       7.49885564       0.00000112      -0.00000719       0.00001977      -5.38366086
Si       3.86869006       4.46718585       8.28908568       0.00001457       0.00001421       0.00003611      -5.38359261
Si       3.86857472       4.46706539      10.65898455       0.00002227       0.00001710       0.00001933      -5.38356506
Si       5.80286365       1.11648599       8.28922807      -0.00000000      -0.00000942       0.00000745      -5.38353059
Si       5.80286365       1.11666586      10.65910539       0.00000000       0.00000709       0.00000399      -5.38356658
Si       5.80286365       3.35857866       1.96668246      -0.00000000      -0.00002932      -0.00001388      -5.37920395
Si       5.80286365       3.35244492       4.33792584      -0.00000000      -0.00001291      -0.00003190      -5.38367153
Si       5.80286365       5.58494345       5.12965314       0.00000000      -0.00002653       0.00001584      -5.38570182
Si       5.80286365       5.58419647       7.49859442      -0.00000000      -0.00002001      -0.00005659      -5.38358883
Si       7.73571105      13.40008858       1.97045432       0.00005176       0.00001718       0.00001274      -5.38653719
Si       7.73660696       0.00003961       4.33943122       0.00004165      -0.00005292      -0.00005123      -5.38461503
Si       7.73650811       2.23399974       5.12908235       0.00004178      -0.00002797      -0.00000768      -5.38347355
Si       7.73689161       2.23350400       7.49885564      -0.00000112      -0.00000719       0.00001977      -5.38366086
Si       7.73703723       4.46718585       8.28908568      -0.00001457       0.00001421       0.00003611      -5.38359261
Si       7.73715257       4.46706539      10.65898455      -0.00002227       0.00001710       0.00001933      -5.38356506
Si       9.67133900       1.11668479       8.28920341      -0.00000071      -0.00001522       0.00002674      -5.38342280
Si       9.67142379       1.11672757      10.65910689      -0.00003315      -0.00000411       0.00003906      -5.38357256
Si       9.66994510       3.35142141       1.97079616       0.00002683      -0.00003531       0.00001378      -5.38613327
Si       9.67115689       3.35071792       4.33960513       0.00006776       0.00002236      -0.00004799      -5.38472634
Si       9.66992131       5.58514404       5.12883625      -0.00000617       0.00007665       0.00002583      -5.38469286
Si       9.67121106       5.58411465       7.49834079      -0.00000935       0.00003814      -0.00000927      -5.38364127
Si      11.60572729       6.70085746       1.96954195       0.00000000       0.00010463       0.00004901      -5.38903583
Si       0.00000000       6.70030788       4.33867578       0.00000000      -0.00002172      -0.00007590      -5.38530883
Si       0.00000000       8.93399210       5.12811304       0.00000000       0.00002880       0.00006583      -5.38378194
Si       0.00000000       8.93430979       7.49813566      -0.00000000      -0.00002174       0.00003544      -5.38346683
Si       0.00000000      11.16749892       8.28919519      -0.00000000       0.00000507       0.00002447      -5.38360412
Si       0.00000000      11.16759378      10.65909113      -0.00000000      -0.00002738       0.00003065      -5.38355509
Si       1.93428454       7.81752509       8.28894314       0.00001148      -0.00000624       0.00002325      -5.38363553
Si       1.93424932       7.81739681      10.65891492       0.00001593      -0.00001718      -0.00002113      -5.38352916
Si       1.94000845      10.04672217       1.96581446       0.00000996      -0.00000737       0.00001914      -5.37939706
Si       1.93540522      10.04955015       4.33721294       0.00002015       0.00003221      -0.00000422      -5.38365771
Si       1.93479086      12.28329251       5.12892371      -0.00001293      -0.00000881       0.00005581      -5.38352074
Si       1.93429109      12.28410138       7.49873474      -0.00000324      -0.00002420      -0.00001353      -5.38357348
Si       3.86967239       6.70186346       1.96185868      -0.00007567      -0.00002998      -0.00010662      -5.38278445
Si       3.86947158       6.70141953       4.33459092       0.00000906       0.00000252       0.00006897      -5.38861858
Si       3.86908283       8.93386000       5.12949517       0.00002444      -0.00003097       0.00000006      -5.38574000
Si       3.86874486       8.93396882       7.49849112      -0.00002467       0.00000612      -0.00006420      -5.38352226
Si       3.86855875      11.16736192       8.28922765      -0.00000295       0.00000528      -0.00000130      -5.38365164
Si       3.86855393      11.16756752      10.65911648       0.00002679       0.00000306      -0.00001373      -5.38353835
Si       5.80286365       7.81741492       8.28912883       0.00000000      -0.00003401       0.00002116      -5.38389542
Si       5.80286365       7.81735591      10.65905170       0.00000000       0.00000563       0.00000322      -5.38354143
Si       5.80286365      10.04916363       1.96195404      -0.00000000      -0.00002016      -0.00010066      -5.38303099
Si       5.80286365      10.04966060       4.33466376       0.00000000      -0.00001915       0.00004368      -5.38851290
Si       5.80286365      12.28232361       5.12920113      -0.00000000      -0.00006707       0.00001068      -5.38490330
Si       5.80286365      12.28392079       7.49861657      -0.00000000      -0.00000019      -0.00003987      -5.38353553
Si       7.73605491       6.70186346       1.96185868       0.00007567      -0.00002998      -0.00010662      -5.38278445
Si       7.73625572       6.70141953       4.33459092      -0.00000906       0.00000252       0.00006897      -5.38861858
Si       7.73664446       8.93386000       5.12949517      -0.00002444      -0.00003097       0.00000006      -5.38574000
Si       7.73698243       8.93396882       7.49849112       0.00002467       0.00000612      -0.00006420      -5.38352226
Si       7.73716855      11.16736192       8.28922765       0.00000295       0.00000528      -0.00000130      -5.38365164
Si       7.73717336      11.16756752      10.65911648      -0.00002679       0.00000306      -0.00001373      -5.38353835
Si       9.67144276       7.81752509       8.28894314      -0.00001148      -0.00000624       0.00002325      -5.38363553
Si       9.67147798       7.81739681      10.65891492      -0.00001593      -0.00001718      -0.00002113      -5.38352916
Si       9.66571885      10.04672217       1.96581446      -0.00000996      -0.00000737       0.00001914      -5.37939706
Si       9.67032208      10.04955015       4.33721294      -0.00002015       0.00003221      -0.00000422      -5.38365771
Si       9.67093644      12.28329251       5.12892371       0.00001293      -0.00000881       0.00005581      -5.38352074
Si       9.67143621      12.28410138       7.49873474       0.00000324      -0.00002420      -0.00001353      -5.38357348
Si       0.00000000      13.40112032      11.44960779      -0.00000000       0.00000500      -0.00000126      -5.38353591
Si       0.00000000       0.00000659      13.81948948      -0.00000000      -0.00003549       0.00001418      -5.38355332
Si       0.00000000       2.23356183      14.60990195      -0.00000000       0.00001251      -0.00006708      -5.38356910
Si       0.00000000       2.23357883      16.97980309       0.00000000       0.00001436       0.00003888      -5.38348390
Si       0.00000000       4.46715727      17.77033583      -0.00000000       0.00002810      -0.00006351      -5.38349981
Si      11.60572729       4.46774609      20.14037168       0.00000000      -0.00006224      -0.00006270      -5.38371603
Si       1.93438742       1.11681191      17.77024880       0.00002437       0.00000613      -0.00006472      -5.38364190
Si       1.93460621       1.11710588      20.14007864      -0.00005782       0.00004005       0.00000184      -5.38319626
Si       1.93426013       3.35031634      11.44948889       0.00002342      -0.00000959       0.00001677      -5.38353465
Si       1.93427216       3.35030669      13.81936898       0.00003823       0.00000234       0.00000751      -5.38356081
Si       1.93427779       5.58383192      14.60983829      -0.00000265       0.00001820      -0.00002651      -5.38354654
Si       1.93432362       5.58389964      16.97978433       0.00000093      -0.00000051       0.00005472      -5.38357297
Si       3.86856507      13.40108896      11.44963576       0.00000697       0.00001057       0.00001849      -5.38355284
Si       3.86855288      13.40111127      13.81949734       0.00001379       0.00002441      -0.00003621      -5.38355904
Si       3.86856513       2.23353723      14.60988545       0.00001640      -0.00001304      -0.00002356      -5.38355490
Si       3.86861841       2.23362764      16.97976524      -0.00001817       0.00002366       0.00001544      -5.38355817
Si       3.86864444       4.46727402      17.77026146       0.00000484       0.00001920       0.00004587      -5.38350400
Si       3.86902608       4.46782112      20.13992553      -0.00003991       0.00003648       0.00000851      -5.38421175
Si       5.80286365       1.11691926      17.77034717       0.00000000      -0.00000132      -0.00007427      -5.38356717
Si       5.80286365       1.11681400      20.14031888      -0.00000000       0.00004848       0.00000237      -5.38350329
Si       5.80286365       3.35025176      11.44946793       0.00000000       0.00002340       0.00002882      -5.38354742
Si       5.80286365       3.35022181      13.81928745       0.00000000       0.00005630       0.00003359      -5.38357910
Si       5.80286365       5.58378504      14.60956237       0.00000000      -0.00001129       0.00009463      -5.38355458
Si       5.80286365       5.58391307      16.97940610       0.00000000      -0.00000734       0.00003724      -5.38365157
Si       7.73716223      13.40108896      11.44963576      -0.00000697       0.00001057       0.00001849      -5.38355284
Si       7.73717441      13.40111127      13.81949734      -0.00001379       0.00002441      -0.00003621      -5.38355904
Si       7.73716216       2.23353723      14.60988545      -0.00001640      -0.00001304      -0.00002356      -5.38355490
Si       7.73710888       2.23362764      16.97976524       0.00001817       0.00002366       0.00001544      -5.38355817
Si       7.73708286       4.46727402      17.77026146      -0.00000484       0.00001920       0.00004587      -5.38350400
Si       7.73670122       4.46782112      20.13992553       0.00003991       0.00003648       0.00000851      -5.38421175
Si       9.67133987       1.11681191      17.77024880      -0.00002437       0.00000613      -0.00006472      -5.38364190
Si       9.67112108       1.11710588      20.14007864       0.00005782       0.00004005       0.00000184      -5.38319626
Si       9.67146717       3.35031634      11.44948889      -0.00002342      -0.00000959       0.00001677      -5.38353465
Si       9.67145513       3.35030669      13.81936898      -0.00003823       0.00000234       0.00000751      -5.38356081
Si       9.67144951       5.58383192      14.60983829       0.00000265       0.00001820      -0.00002651      -5.38354654
Si       9.67140368       5.58389964      16.97978433      -0.00000093      -0.00000051       0.00005472      -5.38357297
Si       0.00000000       6.70061983      11.44948303       0.00000000       0.00001164       0.00001688      -5.38357747
Si       0.00000000       6.70059588      13.81937586       0.00000000      -0.00000675      -0.00003157      -5.38357231
Si       0.00000000       8.93405738      14.61007214       0.00000000      -0.00000002      -0.00007582      -5.38354373
Si      11.60572729       8.93399170      16.98001728       0.00000000      -0.00003500      -0.00000109      -5.38360050
Si       0.00000000      11.16738339      17.77058194       0.00000000      -0.00001790      -0.00004482      -5.38365433
Si      11.60572729      11.16694626      20.14057704       0.00000000      -0.00003847      -0.00001099      -5.38318611
Si       1.93438146       7.81725569      17.77058148       0.00001162       0.00000227      -0.00002626      -5.38350402
Si       1.93477589       7.81703579      20.14036100       0.00005262      -0.00001467      -0.00003472      -5.38412226
Si       1.93425192      10.05085105      11.44958586       0.00002987      -0.00001242      -0.00000228      -5.38357945
Si       1.93421440      10.05086876      13.81943579       0.00002475      -0.00002112      -0.00002388      -5.38357496
Si       1.93426462      12.28436106      14.61004795       0.00003169      -0.00001148      -0.00007416      -5.38355221
Si       1.93427446      12.28426375      16.97997924      -0.00000440      -0.00001181       0.00000158      -5.38349858
Si       3.86853101       6.70059864      11.44943108       0.00002614      -0.00000098      -0.00000381      -5.38357790
Si       3.86852781       6.70057243      13.81923399       0.00004793      -0.00000657      -0.00001200      -5.38356355
Si       3.86852138       8.93408969      14.60972235       0.00000995       0.00000792       0.00004823      -5.38356478
Si       3.86859671       8.93398420      16.97959179      -0.00000374       0.00000141       0.00002685      -5.38362688
Si       3.86870140      11.16741086      17.77038345       0.00002956      -0.00002539      -0.00004280      -5.38357664
Si       3.86893421      11.16678870      20.14004034       0.00003397      -0.00006201      -0.00000626      -5.38411785
Si       5.80286365       7.81729422      17.76959653       0.00000000      -0.00000799      -0.00000473      -5.38364983
Si       5.80286365       7.81724786      20.13868584      -0.00000000       0.00005389       0.00010875      -5.38454415
Si       5.80286365      10.05084878      11.44958303      -0.00000000      -0.00001652      -0.00001472      -5.38358416
Si       5.80286365      10.05086362      13.81938357      -0.00000000      -0.00001309      -0.00008070      -5.38355349
Si       5.80286365      12.28436125      14.60995771      -0.00000000      -0.00000492      -0.00002858      -5.38355102
Si       5.80286365      12.28436522      16.97989418       0.00000000       0.00000288       0.00002412      -5.38352087
Si       7.73719629       6.70059864      11.44943108      -0.00002614      -0.00000098      -0.00000381      -5.38357790
Si       7.73719948       6.70057243      13.81923399      -0.00004793      -0.00000657      -0.00001200      -5.38356355
Si       7.73720591       8.93408969      14.60972235      -0.00000995       0.00000792       0.00004823      -5.38356478
Si       7.73713058       8.93398420      16.97959179       0.00000374       0.00000141       0.00002685      -5.38362688
Si       7.73702590      11.16741086      17.77038345      -0.00002956      -0.00002539      -0.00004280      -5.38357664
Si       7.73679308      11.16678870      20.14004034      -0.00003397      -0.00006201      -0.00000626      -5.38411785
Si       9.67134583       7.81725569      17.77058148      -0.00001162       0.00000227      -0.00002626      -5.38350402
Si       9.67095141       7.81703579      20.14036100      -0.00005262      -0.00001467      -0.00003472      -5.38412226
Si       9.67147537      10.05085105      11.44958586      -0.00002987      -0.00001242      -0.00000228      -5.38357945
Si       9.67151289      10.05086876      13.81943579      -0.00002475      -0.00002112      -0.00002388      -5.38357496
Si       9.67146267      12.28436106      14.61004795      -0.00003169      -0.00001148      -0.00007416      -5.38355221
Si       9.67145283      12.28426375      16.97997924       0.00000440      -0.00001181       0.00000158      -5.38349858
