216
Lattice="11.605727294873521 0.0 0.0 0.0 13.401139555673227 0.0 0.0 0.0 28.428109966331448" Properties=species:S:1:pos:R:3:forces:R:3 energy=-1164.7863525657342 free_energy=-1164.7863525657342 pbc="T T T"
Si       0.00000000       0.00000000      20.92624761      -0.00000000       0.00000243      -0.00001304
Si      11.60572729      13.40113956      23.29525678       0.00000000      -0.00006005       0.00004378
Si      11.60572729       2.23352326      24.08492650      -0.00000000       0.00003556      -0.00004057
Si      11.60572729       2.23352326      26.45393566      -0.00000000      -0.00010167       0.00000366
Si      11.60572729       4.46704652      27.24360538      -0.00000000       0.00011974      -0.00003618
Si       0.00000000       4.46704652       1.18450458      -0.00000000      -0.00000769      -0.00011623
Si       1.93428788       1.11676163      27.24360538       0.00006965       0.00007716       0.00000635
Si       1.93428788       1.11676163       1.18450458       0.00006965      -0.00007716      -0.00000635
Si       1.93428788       3.35028489      20.92624761      -0.00005558       0.00001520      -0.00005892
Si       1.93428788       3.35028489      23.29525678       0.00000977      -0.00009288       0.00006179
Si       1.93428788       5.58380815      24.08492650      -0.00006112       0.00001415      -0.00003542
Si       1.93428788       5.58380815      26.45393566      -0.00000497      -0.00004560       0.00000589
Si       3.86857576      13.40113956      20.92624761       0.00000971       0.00002434       0.00004033
Si       3.86857576      13.40113956      23.29525678      -0.00006717      -0.00009625       0.00003672
Si       3.86857576       2.23352326      24.08492650       0.00001995      -0.00003187      -0.00001388
Si       3.86857576       2.23352326      26.45393566       0.00000027      -0.00008000       0.00005383
Si       3.86857576       4.46704652      27.24360538      -0.00003015       0.00005117      -0.00001343
Si       3.86857576       4.46704652       1.18450458      -0.00000453      -0.00004345       0.00001025
Si       5.80286365       1.11676163      27.24360538       0.00000000      -0.00001432      -0.00007563
Si       5.80286365       1.11676163       1.18450458      -0.00000000       0.00001432       0.00007563
Si       5.80286365       3.35028489      20.92624761      -0.00000000      -0.00007671      -0.00002697
Si       5.80286365       3.35028489      23.29525678       0.00000000      -0.00009164       0.00007724
Si       5.80286365       5.58380815      24.08492650      -0.00000000       0.00008141      -0.00009260
Si       5.80286365       5.58380815      26.45393566       0.00000000      -0.00001377      -0.00006577
Si       7.73715153      13.40113956      20.92624761      -0.00000971       0.00002434       0.00004033
Si       7.73715153      13.40113956      23.29525678       0.00006717      -0.00009625       0.00003672
Si       7.73715153       2.23352326      24.08492650      -0.00001995      -0.00003187      -0.00001388
Si       7.73715153       2.23352326      26.45393566      -0.00000027      -0.00008000       0.00005383
Si       7.73715153       4.46704652      27.24360538       0.00003015       0.00005117      -0.00001343
Si       7.73715153       4.46704652       1.18450458       0.00000453      -0.00004345       0.00001025
Si       9.67143941       1.11676163      27.24360538      -0.00006965       0.00007716       0.00000635
Si       9.67143941       1.11676163       1.18450458      -0.00006965      -0.00007716      -0.00000635
Si       9.67143941       3.35028489      20.92624761       0.00005558       0.00001520      -0.00005892
Si       9.67143941       3.35028489      23.29525678      -0.00000977      -0.00009288       0.00006179
Si       9.67143941       5.58380815      24.08492650       0.00006112       0.00001415      -0.00003542
Si       9.67143941       5.58380815      26.45393566       0.00000497      -0.00004560       0.00000589
Si      11.60572729       6.70056978      20.92624761       0.00000000      -0.00002169      -0.00013082
Si      11.60572729       6.70056978      23.29525678      -0.00000000       0.00009940      -0.00000291
Si      11.60572729       8.93409304      24.08492650       0.00000000       0.00001911      -0.00005212
Si      11.60572729       8.93409304      26.45393566      -0.00000000      -0.00003430      -0.00004286
Si      11.60572729      11.16761630      27.24360538       0.00000000       0.00000769       0.00011623
Si       0.00000000      11.16761630       1.18450458      -0.00000000      -0.00011974       0.00003618
Si       1.93428788       7.81733141      27.24360538      -0.00003183       0.00008492      -0.00002728
Si       1.93428788       7.81733141       1.18450458      -0.00003183      -0.00008492       0.00002728
Si       1.93428788      10.05085467      20.92624761      -0.00004369      -0.00004969      -0.00008872
Si       1.93428788      10.05085467      23.29525678      -0.00001299      -0.00000963      -0.00001419
Si       1.93428788      12.28437793      24.08492650      -0.00003381       0.00004235      -0.00006072
Si       1.93428788      12.28437793      26.45393566       0.00000997      -0.00000240       0.00000906
Si       3.86857576       6.70056978      20.92624761      -0.00007096       0.00000415       0.00001210
Si       3.86857576       6.70056978      23.29525678      -0.00001515      -0.00009207       0.00000807
Si       3.86857576       8.93409304      24.08492650      -0.00000390       0.00007777      -0.00000065
Si       3.86857576       8.93409304      26.45393566      -0.00000807       0.00003059      -0.00008812
Si       3.86857576      11.16761630      27.24360538      -0.00000453       0.00004345      -0.00001025
Si       3.86857576      11.16761630       1.18450458      -0.00003015      -0.00005117       0.00001343
P        5.80286365       7.81733141      27.24360538      -0.00000000       0.00014193      -0.00000988
Si       5.80286365       7.81733141       1.18450458       0.00000000      -0.00014193       0.00000988
Si       5.80286365      10.05085467      20.92624761      -0.00000000       0.00006851       0.00003134
Si       5.80286365      10.05085467      23.29525678      -0.00000000      -0.00008881      -0.00004164
Si       5.80286365      12.28437793      24.08492650      -0.00000000       0.00005991       0.00006082
Si       5.80286365      12.28437793      26.45393566       0.00000000      -0.00007543       0.00014480
Si       7.73715153       6.70056978      20.92624761       0.00007096       0.00000415       0.00001210
Si       7.73715153       6.70056978      23.29525678       0.00001515      -0.00009207       0.00000807
Si       7.73715153       8.93409304      24.08492650       0.00000390       0.00007777      -0.00000065
Si       7.73715153       8.93409304      26.45393566       0.00000807       0.00003059      -0.00008812
Si       7.73715153      11.16761630      27.24360538       0.00000453       0.00004345      -0.00001025
Si       7.73715153      11.16761630       1.18450458       0.00003015      -0.00005117       0.00001343
Si       9.67143941       7.81733141      27.24360538       0.00003183       0.00008492      -0.00002728
Si       9.67143941       7.81733141       1.18450458       0.00003183      -0.00008492       0.00002728
Si       9.67143941      10.05085467      20.92624761       0.00004369      -0.00004969      -0.00008872
Si       9.67143941      10.05085467      23.29525678       0.00001299      -0.00000963      -0.00001419
Si       9.67143941      12.28437793      24.08492650       0.00003381       0.00004235      -0.00006072
Si       9.67143941      12.28437793      26.45393566      -0.00000997      -0.00000240       0.00000906
Si      11.60572729      13.40113956       1.97417430      -0.00000000       0.00010167      -0.00000366
Si      11.60572729      13.40113956       4.34318347      -0.00000000      -0.00003556       0.00004057
Si      11.60572729       2.23352326       5.13285319      -0.00000000       0.00006005      -0.00004378
Si      11.60572729       2.23352326       7.50186235      -0.00000000      -0.00000243       0.00001304
Si      11.60572729       4.46704652       8.29153207      -0.00000000      -0.00003124       0.00002951
Si       0.00000000       4.46704652      10.66054124       0.00000000       0.00000835      -0.00001745
Si       1.93428788       1.11676163       8.29153207      -0.00000051       0.00002561       0.00002228
Si       1.93428788       1.11676163      10.66054124      -0.00000366       0.00004618      -0.00002002
Si       1.93428788       3.35028489       1.97417430       0.00000997       0.00000240      -0.00000906
Si       1.93428788       3.35028489       4.34318347      -0.00003381      -0.00004235       0.00006072
Si       1.93428788       5.58380815       5.13285319      -0.00001299       0.00000963       0.00001419
Si       1.93428788       5.58380815       7.50186235      -0.00004369       0.00004969       0.00008872
Si       3.86857576      13.40113956       1.97417430       0.00000027       0.00008000      -0.00005383
Si       3.86857576      13.40113956       4.34318347       0.00001995       0.00003187       0.00001388
Si       3.86857576       2.23352326       5.13285319      -0.00006717       0.00009625      -0.00003672
Si       3.86857576       2.23352326       7.50186235       0.00000971      -0.00002434      -0.00004033
Si       3.86857576       4.46704652       8.29153207       0.00002816       0.00006413       0.00003348
Si       3.86857576       4.46704652      10.66054124       0.00002509      -0.00003208       0.00007524
Si       5.80286365       1.11676163       8.29153207      -0.00000000       0.00003918      -0.00001274
Si       5.80286365       1.11676163      10.66054124      -0.00000000       0.00005195      -0.00002210
Si       5.80286365       3.35028489       1.97417430       0.00000000       0.00007543      -0.00014480
Si       5.80286365       3.35028489       4.34318347       0.00000000      -0.00005991      -0.00006082
Si       5.80286365       5.58380815       5.13285319      -0.00000000       0.00008881       0.00004164
Si       5.80286365       5.58380815       7.50186235      -0.00000000      -0.00006851      -0.00003134
Si       7.73715153      13.40113956       1.97417430      -0.00000027       0.00008000      -0.00005383
Si       7.73715153      13.40113956       4.34318347      -0.00001995       0.00003187       0.00001388
Si       7.73715153       2.23352326       5.13285319       0.00006717       0.00009625      -0.00003672
Si       7.73715153       2.23352326       7.50186235      -0.00000971      -0.00002434      -0.00004033
Si       7.73715153       4.46704652       8.29153207      -0.00002816       0.00006413       0.00003348
Si       7.73715153       4.46704652      10.66054124      -0.00002509      -0.00003208       0.00007524
Si       9.67143941       1.11676163       8.29153207       0.00000051       0.00002561       0.00002228
Si       9.67143941       1.11676163      10.66054124       0.00000366       0.00004618      -0.00002002
Si       9.67143941       3.35028489       1.97417430      -0.00000997       0.00000240      -0.00000906
Si       9.67143941       3.35028489       4.34318347       0.00003381      -0.00004235       0.00006072
Si       9.67143941       5.58380815       5.13285319       0.00001299       0.00000963       0.00001419
Si       9.67143941       5.58380815       7.50186235       0.00004369       0.00004969       0.00008872
Si      11.60572729       6.70056978       1.97417430      -0.00000000       0.00003430       0.00004286
Si      11.60572729       6.70056978       4.34318347      -0.00000000      -0.00001911       0.00005212
Si      11.60572729       8.93409304       5.13285319      -0.00000000      -0.00009940       0.00000291
Si      11.60572729       8.93409304       7.50186235       0.00000000       0.00002169       0.00013082
Si      11.60572729      11.16761630       8.29153207      -0.00000000       0.00006495       0.00004740
Si       0.00000000      11.16761630      10.66054124       0.00000000       0.00004558       0.00001164
Si       1.93428788       7.81733141       8.29153207       0.00002122      -0.00000458       0.00000450
Si       1.93428788       7.81733141      10.66054124       0.00003140       0.00002819       0.00003493
Si       1.93428788      10.05085467       1.97417430      -0.00000497       0.00004560      -0.00000589
Si       1.93428788      10.05085467       4.34318347      -0.00006112      -0.00001415       0.00003542
Si       1.93428788      12.28437793       5.13285319       0.00000977       0.00009288      -0.00006179
Si       1.93428788      12.28437793       7.50186235      -0.00005558      -0.00001520       0.00005892
Si       3.86857576       6.70056978       1.97417430      -0.00000807      -0.00003059       0.00008812
Si       3.86857576       6.70056978       4.34318347      -0.00000390      -0.00007777       0.00000065
Si       3.86857576       8.93409304       5.13285319      -0.00001515       0.00009207      -0.00000807
Si       3.86857576       8.93409304       7.50186235      -0.00007096      -0.00000415      -0.00001210
Si       3.86857576      11.16761630       8.29153207      -0.00003231       0.00008282      -0.00005185
Si       3.86857576      11.16761630      10.66054124      -0.00001250       0.00000311      -0.00000657
Si       5.80286365       7.81733141       8.29153207      -0.00000000       0.00006774       0.00008968
Si       5.80286365       7.81733141      10.66054124      -0.00000000      -0.00002470       0.00016732
Si       5.80286365      10.05085467       1.97417430       0.00000000       0.00001377       0.00006577
Si       5.80286365      10.05085467       4.34318347      -0.00000000      -0.00008141       0.00009260
Si       5.80286365      12.28437793       5.13285319       0.00000000       0.00009164      -0.00007724
Si       5.80286365      12.28437793       7.50186235       0.00000000       0.00007671       0.00002697
Si       7.73715153       6.70056978       1.97417430       0.00000807      -0.00003059       0.00008812
Si       7.73715153       6.70056978       4.34318347       0.00000390      -0.00007777       0.00000065
Si       7.73715153       8.93409304       5.13285319       0.00001515       0.00009207      -0.00000807
Si       7.73715153       8.93409304       7.50186235       0.00007096      -0.00000415      -0.00001210
Si       7.73715153      11.16761630       8.29153207       0.00003231       0.00008282      -0.00005185
Si       7.73715153      11.16761630      10.66054124       0.00001250       0.00000311      -0.00000657
Si       9.67143941       7.81733141       8.29153207      -0.00002122      -0.00000458       0.00000450
Si       9.67143941       7.81733141      10.66054124      -0.00003140       0.00002819       0.00003493
Si       9.67143941      10.05085467       1.97417430       0.00000497       0.00004560      -0.00000589
Si       9.67143941      10.05085467       4.34318347       0.00006112      -0.00001415       0.00003542
Si       9.67143941      12.28437793       5.13285319      -0.00000977       0.00009288      -0.00006179
Si       9.67143941      12.28437793       7.50186235       0.00005558      -0.00001520       0.00005892
Si      11.60572729      13.40113956      11.45021096       0.00000000       0.00002999      -0.00002614
Si      11.60572729      13.40113956      13.81922012       0.00000000      -0.00005712       0.00003091
Si      11.60572729       2.23352326      14.60888984      -0.00000000       0.00005712      -0.00003091
Si      11.60572729       2.23352326      16.97789901       0.00000000      -0.00002999       0.00002614
Si      11.60572729       4.46704652      17.76756873      -0.00000000      -0.00004558      -0.00001164
Si       0.00000000       4.46704652      20.13657789      -0.00000000      -0.00006495      -0.00004740
Si       1.93428788       1.11676163      17.76756873      -0.00000366      -0.00004618       0.00002002
Si       1.93428788       1.11676163      20.13657789      -0.00000051      -0.00002561      -0.00002228
Si       1.93428788       3.35028489      11.45021096       0.00000780       0.00002363       0.00006690
Si       1.93428788       3.35028489      13.81922012       0.00003357      -0.00002564       0.00004420
Si       1.93428788       5.58380815      14.60888984      -0.00002547      -0.00001852      -0.00000596
Si       1.93428788       5.58380815      16.97789901      -0.00000911      -0.00004427       0.00006538
Si       3.86857576      13.40113956      11.45021096      -0.00002313       0.00002602      -0.00005358
Si       3.86857576      13.40113956      13.81922012      -0.00005285       0.00001203       0.00002498
Si       3.86857576       2.23352326      14.60888984      -0.00005285      -0.00001203      -0.00002498
Si       3.86857576       2.23352326      16.97789901      -0.00002313      -0.00002602       0.00005358
Si       3.86857576       4.46704652      17.76756873      -0.00001250      -0.00000311       0.00000657
Si       3.86857576       4.46704652      20.13657789      -0.00003231      -0.00008282       0.00005185
Si       5.80286365       1.11676163      17.76756873      -0.00000000      -0.00005195       0.00002210
Si       5.80286365       1.11676163      20.13657789       0.00000000      -0.00003918       0.00001274
Si       5.80286365       3.35028489      11.45021096      -0.00000000       0.00005410      -0.00003576
Si       5.80286365       3.35028489      13.81922012      -0.00000000       0.00000594       0.00008261
Si       5.80286365       5.58380815      14.60888984      -0.00000000      -0.00001388       0.00002641
Si       5.80286365       5.58380815      16.97789901      -0.00000000      -0.00000306       0.00007395
Si       7.73715153      13.40113956      11.45021096       0.00002313       0.00002602      -0.00005358
Si       7.73715153      13.40113956      13.81922012       0.00005285       0.00001203       0.00002498
Si       7.73715153       2.23352326      14.60888984       0.00005285      -0.00001203      -0.00002498
Si       7.73715153       2.23352326      16.97789901       0.00002313      -0.00002602       0.00005358
Si       7.73715153       4.46704652      17.76756873       0.00001250      -0.00000311       0.00000657
Si       7.73715153       4.46704652      20.13657789       0.00003231      -0.00008282       0.00005185
Si       9.67143941       1.11676163      17.76756873       0.00000366      -0.00004618       0.00002002
Si       9.67143941       1.11676163      20.13657789       0.00000051      -0.00002561      -0.00002228
Si       9.67143941       3.35028489      11.45021096      -0.00000780       0.00002363       0.00006690
Si       9.67143941       3.35028489      13.81922012      -0.00003357      -0.00002564       0.00004420
Si       9.67143941       5.58380815      14.60888984       0.00002547      -0.00001852      -0.00000596
Si       9.67143941       5.58380815      16.97789901       0.00000911      -0.00004427       0.00006538
Si      11.60572729       6.70056978      11.45021096      -0.00000000       0.00000900       0.00002025
Si      11.60572729       6.70056978      13.81922012      -0.00000000       0.00005081       0.00000797
Si      11.60572729       8.93409304      14.60888984      -0.00000000      -0.00005081      -0.00000797
Si      11.60572729       8.93409304      16.97789901      -0.00000000      -0.00000900      -0.00002025
Si      11.60572729      11.16761630      17.76756873       0.00000000      -0.00000835       0.00001745
Si       0.00000000      11.16761630      20.13657789       0.00000000       0.00003124      -0.00002951
Si       1.93428788       7.81733141      17.76756873       0.00003140      -0.00002819      -0.00003493
Si       1.93428788       7.81733141      20.13657789       0.00002122       0.00000458      -0.00000450
Si       1.93428788      10.05085467      11.45021096      -0.00000911       0.00004427      -0.00006538
Si       1.93428788      10.05085467      13.81922012      -0.00002547       0.00001852       0.00000596
Si       1.93428788      12.28437793      14.60888984       0.00003357       0.00002564      -0.00004420
Si       1.93428788      12.28437793      16.97789901       0.00000780      -0.00002363      -0.00006690
Si       3.86857576       6.70056978      11.45021096       0.00003736      -0.00000487      -0.00007046
Si       3.86857576       6.70056978      13.81922012       0.00005877      -0.00001818       0.00002447
Si       3.86857576       8.93409304      14.60888984       0.00005877       0.00001818      -0.00002447
Si       3.86857576       8.93409304      16.97789901       0.00003736       0.00000487       0.00007046
Si       3.86857576      11.16761630      17.76756873       0.00002509       0.00003208      -0.00007524
Si       3.86857576      11.16761630      20.13657789       0.00002816      -0.00006413      -0.00003348
Si       5.80286365       7.81733141      17.76756873      -0.00000000       0.00002470      -0.00016732
Si       5.80286365       7.81733141      20.13657789       0.00000000      -0.00006774      -0.00008968
Si       5.80286365      10.05085467      11.45021096      -0.00000000       0.00000306      -0.00007395
Si       5.80286365      10.05085467      13.81922012      -0.00000000       0.00001388      -0.00002641
Si       5.80286365      12.28437793      14.60888984       0.00000000      -0.00000594      -0.00008261
Si       5.80286365      12.28437793      16.97789901       0.00000000      -0.00005410       0.00003576
Si       7.73715153       6.70056978      11.45021096      -0.00003736      -0.00000487      -0.00007046
Si       7.73715153       6.70056978      13.81922012      -0.00005877      -0.00001818       0.00002447
Si       7.73715153       8.93409304      14.60888984      -0.00005877       0.00001818      -0.00002447
Si       7.73715153       8.93409304      16.97789901      -0.00003736       0.00000487       0.00007046
Si       7.73715153      11.16761630      17.76756873      -0.00002509       0.00003208      -0.00007524
Si       7.73715153      11.16761630      20.13657789      -0.00002816      -0.00006413      -0.00003348
Si       9.67143941       7.81733141      17.76756873      -0.00003140      -0.00002819      -0.00003493
Si       9.67143941       7.81733141      20.13657789      -0.00002122       0.00000458      -0.00000450
Si       9.67143941      10.05085467      11.45021096       0.00000911       0.00004427      -0.00006538
Si       9.67143941      10.05085467      13.81922012       0.00002547       0.00001852       0.00000596
Si       9.67143941      12.28437793      14.60888984      -0.00003357       0.00002564      -0.00004420
Si       9.67143941      12.28437793      16.97789901      -0.00000780      -0.00002363      -0.00006690
