66
Lattice="10.862 0.0 0.0 0.0 10.862 0.0 0.0 0.0 10.862" Properties=species:S:1:pos:R:3:forces:R:3:energies:R:1 energy=-342.2735942250199 stress="-0.08000971304257595 -0.0001630036402418264 -0.00016300364024176553 -0.0001630036402418264 -0.016894701243471925 -0.0007567430626252924 -0.00016300364024176553 -0.0007567430626252924 -0.016894701243471935" free_energy=-342.2735942250199 pbc="T T T"
Si       0.00000000       0.00000000       0.00000000       0.09696222       0.05369448      -0.00795223      -5.38875899
Si       0.00000000       2.71550000       2.71550000       0.01447197      -0.02980388      -0.00413395      -5.38449047
Si       2.71550000       2.71550000       0.00000000       0.05320459      -0.01610296      -0.01972395      -5.38436131
Si       2.71550000       0.00000000       2.71550000       0.70185568       0.42853037      -0.03916933      -5.20218833
Si       4.07325000       1.35775000       4.07325000       0.16577048       0.24435635      -0.02145880      -5.33678071
Si       1.35775000       1.35775000       1.35775000      -0.27633534      -0.13869023       0.05488101      -5.35029102
Si       1.35775000       4.07325000       4.07325000       0.00414444       0.05470862       0.00545589      -5.37208750
Si       4.07325000       4.07325000       1.35775000      -0.01697654       0.02200855      -0.04488993      -5.37285585
Si       0.00000000       0.00000000       5.43100000      -0.17143529      -0.09944518      -0.09944518      -5.28042564
Si       0.00000000       2.71550000       8.14650000      -0.06256465       0.01005887       0.01005887      -5.38862284
Si       2.71550000       2.71550000       5.43100000       0.01782227      -0.02649929       0.04457587      -5.37024865
Si       2.71550000       0.00000000       8.14650000       0.01782227       0.04457587      -0.02649929      -5.37024865
Si       4.07325000       1.35775000       9.50425000      -0.00638871       0.03292771      -0.00062639      -5.38113497
Si       1.35775000       1.35775000       6.78875000       0.09147442       0.00806921       0.00806921      -5.39190040
Si       1.35775000       4.07325000       9.50425000       0.00688190      -0.00010109      -0.00010109      -5.38986302
Si       4.07325000       4.07325000       6.78875000      -0.00638871      -0.00062639       0.03292771      -5.38113497
Si       0.00000000       5.43100000       0.00000000      -0.24327820       0.09070875       0.09070875      -5.35842359
Si       0.00000000       8.14650000       2.71550000     -30.34966782       0.07410606       0.07410606      -2.80049028
Si       2.71550000       8.14650000       0.00000000       0.23646635      -0.02004038      -0.26191308      -5.33467832
Si       2.71550000       5.43100000       2.71550000       0.23646635      -0.26191308      -0.02004038      -5.33467832
Si       4.07325000       6.78875000       4.07325000       0.24100812      -0.29828342      -0.01959502      -5.33101131
Si       1.35775000       6.78875000       1.35775000       0.45306673      -0.28346344      -0.28346344      -5.25880600
Si       1.35775000       9.50425000       4.07325000     -30.07490592       0.22589832       0.22589832      -2.60784428
Si       4.07325000       9.50425000       1.35775000       0.24100812      -0.01959502      -0.29828342      -5.33101131
Si       0.00000000       5.43100000       5.43100000       0.09696222      -0.00795223       0.05369448      -5.38875899
Si       0.00000000       8.14650000       8.14650000       0.01447197      -0.00413395      -0.02980388      -5.38449047
Si       2.71550000       8.14650000       5.43100000       0.70185568      -0.03916933       0.42853037      -5.20218833
Si       2.71550000       5.43100000       8.14650000       0.05320459      -0.01972395      -0.01610296      -5.38436131
Si       4.07325000       6.78875000       9.50425000      -0.01697654      -0.04488993       0.02200855      -5.37285585
Si       1.35775000       6.78875000       6.78875000      -0.27633534       0.05488101      -0.13869023      -5.35029102
Si       1.35775000       9.50425000       9.50425000       0.00414444       0.00545589       0.05470862      -5.37208750
Si       4.07325000       9.50425000       6.78875000       0.16577048      -0.02145880       0.24435635      -5.33678071
Si       5.43100000       0.00000000       0.00000000       0.00855164       0.06536789      -0.01526245      -5.36937482
Si       5.43100000       2.71550000       2.71550000       0.01892227      -0.01679070      -0.02117671      -5.37276872
Si       8.14650000       2.71550000       0.00000000      -0.01768222      -0.01176502      -0.00737129      -5.39121700
Si       8.14650000       0.00000000       2.71550000       0.04788352      -0.01993388       0.00662165      -5.38117828
Si       9.50425000       1.35775000       4.07325000       0.10062940      -0.04633338      -0.02602910      -5.38496316
Si       6.78875000       1.35775000       1.35775000      -0.01837624       0.03449433      -0.01360998      -5.38083538
Si       6.78875000       4.07325000       4.07325000       0.03058499      -0.03303633       0.01364318      -5.38065876
Si       9.50425000       4.07325000       1.35775000       0.01872031       0.03411251      -0.00815026      -5.38844063
Si       5.43100000       0.00000000       5.43100000       0.00124259      -0.03056709      -0.03056709      -5.37211098
Si       5.43100000       2.71550000       8.14650000      -0.00521002       0.00946644       0.00946644      -5.38351751
Si       8.14650000       2.71550000       5.43100000      -0.00373162       0.04475144       0.01798589      -5.38906841
Si       8.14650000       0.00000000       8.14650000      -0.00373162       0.01798589       0.04475144      -5.38906841
Si       9.50425000       1.35775000       9.50425000      -0.04455233       0.01871926      -0.03082022      -5.39019692
Si       6.78875000       1.35775000       6.78875000       0.02467185       0.04702699       0.04702699      -5.37957985
Si       6.78875000       4.07325000       9.50425000      -0.00613159      -0.00114755      -0.00114755      -5.38637107
Si       9.50425000       4.07325000       6.78875000      -0.04455233      -0.03082022       0.01871926      -5.39019692
Si       5.43100000       5.43100000       0.00000000      -0.02364190      -0.00505169      -0.00505169      -5.37982888
Si       5.43100000       8.14650000       2.71550000      -0.11621288       0.02704528       0.02704528      -5.36346541
Si       8.14650000       8.14650000       0.00000000       0.07333264      -0.04414504       0.01414642      -5.38315201
Si       8.14650000       5.43100000       2.71550000       0.07333264       0.01414642      -0.04414504      -5.38315201
Si       9.50425000       6.78875000       4.07325000       0.09839895       0.15696344      -0.06449945      -5.31198889
Si       6.78875000       6.78875000       1.35775000       0.00938196      -0.03781447      -0.03781447      -5.37419926
Si       6.78875000       9.50425000       4.07325000      -0.12784725       0.00206079       0.00206079      -5.36670504
Si       9.50425000       9.50425000       1.35775000       0.09839895      -0.06449945       0.15696344      -5.31198889
Si       5.43100000       5.43100000       5.43100000       0.00855164      -0.01526245       0.06536789      -5.36937482
Si       5.43100000       8.14650000       8.14650000       0.01892227      -0.02117671      -0.01679070      -5.37276872
Si       8.14650000       8.14650000       5.43100000       0.04788352       0.00662165      -0.01993388      -5.38117828
Si       8.14650000       5.43100000       8.14650000      -0.01768222      -0.00737129      -0.01176502      -5.39121700
Si       9.50425000       6.78875000       9.50425000       0.01872031      -0.00815026       0.03411251      -5.38844063
Si       6.78875000       6.78875000       6.78875000      -0.01837624      -0.01360998       0.03449433      -5.38083538
Si       6.78875000       9.50425000       9.50425000       0.03058499       0.01364318      -0.03303633      -5.38065876
Si       9.50425000       9.50425000       6.78875000       0.10062940      -0.02602910      -0.04633338      -5.38496316
B        1.35775000       8.14650000       2.71550000      28.48396962      -0.40162185      -0.40162185      -2.06595393
B        2.71550000       9.50425000       4.07325000      29.02083278       0.32463346       0.32463346      -2.26002542
