66
Lattice="10.862 0.0 0.0 0.0 10.862 0.0 0.0 0.0 10.862" Properties=species:S:1:pos:R:3:forces:R:3:energies:R:1 energy=-354.26475721034683 stress="-0.01856393115652368 0.001534250746857978 0.001534250746857999 0.001534250746857978 -0.01599457176260359 -0.002474112810413696 0.001534250746857999 -0.002474112810413696 -0.015994571762603695" free_energy=-354.26475721034683 pbc="T T T"
Si       0.00839215      -0.00806170       0.01451851       0.00001361       0.00002071       0.00000199      -5.38852030
Si       0.01503832       2.70983903       2.72857670      -0.00001281       0.00000247       0.00000572      -5.37628847
Si       2.71032962       2.69561029       0.01706309       0.00000381      -0.00000090      -0.00000441      -5.36110677
Si       2.73418904      -0.04769925       2.79823140      -0.00000685      -0.00001639       0.00000373      -5.25554092
Si       4.08281364       1.35596942       4.10139096       0.00000630       0.00000265       0.00001941      -5.34637689
Si       1.37017104       1.30154674       1.39688168       0.00001957       0.00000377       0.00000025      -5.34576624
Si       1.37229487       4.08607292       4.06939513       0.00001126      -0.00000514      -0.00000599      -5.37276168
Si       4.11175738       4.03473805       1.34878845       0.00002859       0.00002961       0.00000041      -5.36658584
Si      -0.11638492       0.15189222       5.58289222       0.00002821       0.00002508       0.00002508      -5.26059878
Si      -0.00025837       2.74392648       8.17492648      -0.00002378       0.00001355       0.00001355      -5.39450504
Si       2.72088060       2.72803991       5.43991926       0.00001689      -0.00000837      -0.00001208      -5.38015198
Si       2.72088060       0.00891926       8.15903991       0.00001689      -0.00001208      -0.00000837      -5.38015198
Si       4.07483485       1.36692604       9.51108131       0.00001389      -0.00002445       0.00002292      -5.38200767
Si       1.37223232       1.40727585       6.83827585      -0.00001971      -0.00001428      -0.00001428      -5.37445935
Si       1.36294700       4.08268038       9.51368038      -0.00000551       0.00000637       0.00000637      -5.37890609
Si       4.07483485       4.08008131       6.79792604       0.00001389       0.00002292      -0.00002445      -5.38200767
Si      -0.01446712       5.42365534      -0.00734466      -0.00000162       0.00001537       0.00001537      -5.32715837
Si      -0.29544478       8.29819916       2.86719916       0.00006971      -0.00000783      -0.00000783      -5.16679929
Si       2.79689427       8.14497535      -0.07232805      -0.00001322      -0.00001015       0.00000176      -5.30869492
Si       2.79689427       5.35867195       2.71397535      -0.00001322       0.00000176      -0.00001015      -5.30869492
Si       4.11030363       6.78500164       4.05649632      -0.00002024      -0.00001217      -0.00001052      -5.29970719
Si       1.57498206       6.61918764       1.18818764      -0.00004052      -0.00000992      -0.00000992      -5.18806936
Si       1.06680996       9.65683080       4.22583080       0.00003282       0.00000518       0.00000518      -5.01860910
Si       4.11030363       9.48749632       1.35400164      -0.00002024      -0.00001052      -0.00001217      -5.29970719
Si       0.00839215       5.44551851       5.42293830       0.00001361       0.00000199       0.00002071      -5.38852030
Si       0.01503832       8.15957670       8.14083903      -0.00001281       0.00000572       0.00000247      -5.37628847
Si       2.73418904       8.22923140       5.38330075      -0.00000685       0.00000373      -0.00001639      -5.25554092
Si       2.71032962       5.44806309       8.12661029       0.00000381      -0.00000441      -0.00000090      -5.36110677
Si       4.11175738       6.77978845       9.46573805       0.00002859       0.00000041       0.00002961      -5.36658584
Si       1.37017104       6.82788168       6.73254674       0.00001957       0.00000025       0.00000377      -5.34576624
Si       1.37229487       9.50039513       9.51707292       0.00001126      -0.00000599      -0.00000514      -5.37276168
Si       4.08281364       9.53239096       6.78696942       0.00000630       0.00001941       0.00000265      -5.34637689
Si       5.44364084       0.02750061       0.00762473       0.00000964      -0.00000644       0.00000441      -5.34670834
Si       5.44009434       2.70730041       2.73643064      -0.00000510       0.00000950      -0.00000700      -5.37813905
Si       8.15706805       2.73350121       0.01767829      -0.00001139      -0.00002200      -0.00000856      -5.38652641
Si       8.12179879       0.03696465       2.73462576       0.00000517       0.00001388      -0.00000064      -5.36625490
Si       9.47205069       1.40689846       4.09123601       0.00000716       0.00000016       0.00000802      -5.36021303
Si       6.79199560       1.38236876       1.36892289       0.00001853       0.00000081      -0.00003002      -5.38155364
Si       6.78501396       4.08174056       4.08669056      -0.00000125      -0.00000009      -0.00000806      -5.37618993
Si       9.52106328       4.07925519       1.37900617      -0.00001045      -0.00002904      -0.00001053      -5.38835165
Si       5.44773460       0.02205883       5.45305883      -0.00002352      -0.00002041      -0.00002041      -5.39339301
Si       5.43161004       2.73297602       8.16397602      -0.00000846       0.00000328       0.00000328      -5.38096104
Si       8.13704306       2.75375881       5.45688252       0.00000426       0.00001400      -0.00002164      -5.38666794
Si       8.13704306       0.02588252       8.18475881       0.00000426      -0.00002164       0.00001400      -5.38666794
Si       9.51467413       1.37401350       9.52926995      -0.00004116       0.00000629       0.00002877      -5.38105341
Si       6.79487654       1.38438066       6.81538066      -0.00002669      -0.00001316      -0.00001316      -5.37327423
Si       6.80156824       4.08357364       9.51457364       0.00003144      -0.00001386      -0.00001386      -5.38551325
Si       9.51467413       4.09826995       6.80501350      -0.00004116       0.00002877       0.00000629      -5.38105341
Si       5.43655932       5.43131983       0.00031983       0.00000098       0.00001668       0.00001668      -5.35391032
Si       5.47449471       8.13479356       2.70379356       0.00002967       0.00000244       0.00000244      -5.31601136
Si       8.14460053       8.15352843      -0.00646578       0.00000259       0.00000374      -0.00000297      -5.38306788
Si       8.14460053       5.42453422       2.72252843       0.00000259      -0.00000297       0.00000374      -5.38306788
Si       9.42958569       6.76816841       4.13538011      -0.00001199      -0.00003813       0.00003330      -5.33373711
Si       6.80430260       6.78013666       1.34913666      -0.00002482       0.00000321       0.00000321      -5.37432556
Si       6.78138543       9.51581153       4.08481153       0.00001167       0.00001888       0.00001888      -5.34142960
Si       9.42958569       9.56638011       1.33716841      -0.00001199       0.00003330      -0.00003813      -5.33373711
Si       5.44364084       5.43862473       5.45850061       0.00000964       0.00000441      -0.00000644      -5.34670834
Si       5.44009434       8.16743064       8.13830041      -0.00000510      -0.00000700       0.00000950      -5.37813905
Si       8.12179879       8.16562576       5.46796465       0.00000517      -0.00000064       0.00001388      -5.36625490
Si       8.15706805       5.44867829       8.16450121      -0.00001139      -0.00000856      -0.00002200      -5.38652641
Si       9.52106328       6.81000617       9.51025519      -0.00001045      -0.00001053      -0.00002904      -5.38835165
Si       6.79199560       6.79992289       6.81336876       0.00001853      -0.00003002       0.00000081      -5.38155364
Si       6.78501396       9.51769056       9.51274056      -0.00000125      -0.00000806      -0.00000009      -5.37618993
Si       9.47205069       9.52223601       6.83789846       0.00000716       0.00000802       0.00000016      -5.36021303
B        1.54219436       7.94684932       2.51584932      -0.00003756       0.00002476       0.00002476      -5.83394262
B        2.61105128       8.86994805       3.43894805      -0.00004593       0.00000211       0.00000211      -6.09894649
