67
Lattice="10.862 0.0 0.0 0.0 10.862 0.0 0.0 0.0 10.862" Properties=species:S:1:pos:R:3:forces:R:3:energies:R:1 energy=-359.14699677202543 stress="-0.023723761350689012 -0.0009768537362814893 0.0009768537362814145 -0.0009768537362814893 -0.01791012647768243 0.0016570673063777072 0.0009768537362814145 0.0016570673063777072 -0.017910126477682496" free_energy=-359.14699677202543 pbc="T T T"
Si       0.02166315      -0.01096888       0.00147801       0.00000206      -0.00000867       0.00000230      -5.38118157
Si       0.02166315       2.71402199       2.72646888       0.00000206      -0.00000230       0.00000867      -5.38118157
Si       2.71292953       2.69044685       0.02505315       0.00001487       0.00000289      -0.00000289      -5.37987376
Si       2.87007427       0.01140967       2.70409033       0.00001402       0.00001310      -0.00001310      -5.31687599
Si       4.14584304       1.41795961       4.06739382       0.00001559      -0.00001459       0.00000778      -5.34411276
Si       1.37358691       1.31756050       1.39793950       0.00000310      -0.00000615       0.00000615      -5.34734143
Si       1.37339037       4.08277695       4.08923459      -0.00000790      -0.00001050       0.00000164      -5.37754242
Si       4.06310631       4.08636835       1.36665537       0.00001237      -0.00001813      -0.00001005      -5.37357524
Si      -0.12475589       0.09229976       5.49680401       0.00000293      -0.00000414       0.00001224      -5.30600979
Si       0.01811282       2.69242305       8.15846180       0.00000480      -0.00000485      -0.00001212      -5.38369368
Si       2.71775177       2.69864137       5.41924213      -0.00000328      -0.00000287       0.00000728      -5.37510354
Si       2.71591359      -0.03453973       8.11831513      -0.00000666      -0.00000016      -0.00002887      -5.33699862
Si       4.06310631       1.34884463       9.49113165       0.00001237       0.00001005       0.00001813      -5.37357524
Si       1.36654024       1.34543954       6.78067379       0.00001105      -0.00000943      -0.00000788      -5.37742735
Si       1.35571832       4.05013883       9.52736117       0.00002189      -0.00000406       0.00000406      -5.37448026
Si       4.03059530       4.03310569       6.80574100       0.00000043      -0.00000557       0.00002221      -5.31755937
Si       0.01811282       5.41903820       0.02307695       0.00000480       0.00001212       0.00000485      -5.38369368
Si      -0.12475589       8.08069599       2.62320024       0.00000293      -0.00001224       0.00000414      -5.30600979
Si       2.71775177       8.15825787       0.01685863      -0.00000328      -0.00000728       0.00000287      -5.37510354
Si       2.71591359       5.45918487       2.75003973      -0.00000666       0.00002887       0.00000016      -5.33699862
Si       4.14285197       6.85142072       4.01402572      -0.00001157       0.00001500       0.00000725      -5.17015398
Si       1.36654024       6.79682621       1.37006046       0.00001105       0.00000788       0.00000943      -5.37742735
Si       0.89379636       9.56368796       4.01381204       0.00003108      -0.00000269       0.00000269      -5.07855442
Si       4.14584304       9.51010618       1.29754039       0.00001559      -0.00000778       0.00001459      -5.34411276
Si      -0.01735033       5.41637814       5.42530217       0.00000686      -0.00000058      -0.00000712      -5.37437963
Si      -0.01735033       8.15219783       8.16112186       0.00000686       0.00000712       0.00000058      -5.37437963
Si       2.50987061       8.16713003       5.41036997      -0.00002905       0.00002025      -0.00002025      -5.05306949
Si       2.68522008       5.42828834       8.14921166      -0.00002577       0.00001180      -0.00001180      -5.38437812
Si       4.03059530       6.77175900       9.54439431       0.00000043      -0.00002221       0.00000557      -5.31755937
Si       1.26875828       6.76883084       6.80866916      -0.00002369      -0.00000443       0.00000443      -5.27919969
Si       1.37339037       9.48826541       9.49472305      -0.00000790      -0.00000164       0.00001050      -5.37754242
Si       4.14285197       9.56347428       6.72607928      -0.00001157      -0.00000725      -0.00001500      -5.17015398
Si       5.46066185       0.01743755      -0.04149334       0.00000781       0.00000059      -0.00001411      -5.37146603
Si       5.46066185       2.75699334       2.69806245       0.00000781       0.00001411      -0.00000059      -5.37146603
Si       8.15652841       2.71830951      -0.00280951       0.00000466       0.00001733      -0.00001733      -5.38731220
Si       8.14979520       0.02307751       2.69242249      -0.00001431      -0.00001281       0.00001281      -5.35756629
Si       9.47184821       1.40660971       4.06609578       0.00000721      -0.00001577       0.00000565      -5.37935239
Si       6.79115888       1.37399840       1.34150160      -0.00001304      -0.00000796       0.00000796      -5.37708934
Si       6.81381917       4.09861404       4.07382494      -0.00000028      -0.00001579       0.00000675      -5.33021988
Si       9.51513653       4.06237638       1.36476243       0.00000991      -0.00000653       0.00000739      -5.38787865
Si       5.49334363       0.06234489       5.40988689       0.00001739       0.00000118      -0.00002255      -5.32986171
Si       5.41665886       2.72267386       8.15338511      -0.00000575       0.00000760       0.00000105      -5.37581172
Si       8.14433657       2.74729975       5.44226600      -0.00000457      -0.00000339      -0.00001276      -5.37476060
Si       8.14207399       0.01327415       8.14893307       0.00000319      -0.00000419      -0.00000458      -5.37501233
Si       9.51513653       1.35073757       9.51512362       0.00000991      -0.00000739       0.00000653      -5.38787865
Si       6.80526078       1.39113294       6.80521168      -0.00001136      -0.00000576       0.00000133      -5.37195156
Si       6.78103460       4.06850852       9.50899148      -0.00000435       0.00000650      -0.00000650      -5.38039140
Si       9.53053623       4.04859983       6.80466468       0.00001096       0.00002177       0.00000597      -5.38106085
Si       5.41665886       5.42411489      -0.00717386      -0.00000575      -0.00000105      -0.00000760      -5.37581172
Si       5.49334363       8.16761311       2.65315511       0.00001739       0.00002255      -0.00000118      -5.32986171
Si       8.14433657       8.13523400      -0.03179975      -0.00000457       0.00001276       0.00000339      -5.37476060
Si       8.14207399       5.42856693       2.70222585       0.00000319       0.00000458       0.00000419      -5.37501233
Si       9.48488921       6.76379427       4.05644889       0.00001222       0.00000041       0.00000409      -5.37209151
Si       6.80526078       6.77228832       1.32436706      -0.00001136      -0.00000133       0.00000576      -5.37195156
Si       6.80698510       9.52236569       4.05513431       0.00002309      -0.00001431       0.00001431      -5.36656934
Si       9.47184821       9.51140422       1.30889029       0.00000721      -0.00000565       0.00001577      -5.37935239
Si       5.39602413       5.35894259       5.45985513       0.00002313       0.00000251      -0.00000493      -5.18744445
Si       5.39602413       8.11764487       8.21855741       0.00002313       0.00000493      -0.00000251      -5.18744445
Si       8.20871632       8.18974426       5.38775574      -0.00000634       0.00000492      -0.00000492      -5.29649439
Si       8.21772380       5.37510020       8.20239980      -0.00003811       0.00001140      -0.00001140      -5.33332431
Si       9.53053623       6.77283532       9.52890017       0.00001096      -0.00000597      -0.00002177      -5.38106085
Si       7.05456961       6.77929118       6.79820882      -0.00000476       0.00001254      -0.00001254      -5.15224789
Si       6.81381917       9.50367506       9.47888596      -0.00000028      -0.00000675       0.00001579      -5.33021988
Si       9.48488921       9.52105111       6.81370573       0.00001222      -0.00000409      -0.00000041      -5.37209151
B        2.73053036       9.52849766       4.04900234      -0.00005240      -0.00003054       0.00003054      -5.57213151
B        4.36768691       7.86786832       5.70963168      -0.00004866       0.00001729      -0.00001729      -5.97372108
B        5.16456340       6.84201003       6.73548997      -0.00004531       0.00001475      -0.00001475      -6.02707660
