67
Lattice="10.862 0.0 0.0 0.0 10.862 0.0 0.0 0.0 10.862" Properties=species:S:1:pos:R:3:forces:R:3:energies:R:1 energy=-340.8920279655555 stress="-0.11490021285744519 -4.3453425460106794e-05 -0.0003160032336659588 -4.3453425460106794e-05 -0.019761146404779342 -0.0005041420179315346 -0.0003160032336659588 -0.0005041420179315346 -0.019775005485077587" free_energy=-340.8920279655555 pbc="T T T"
Si       0.00000000       0.00000000       0.00000000       0.07240557       0.06045330      -0.00821758      -5.39545483
Si       0.00000000       2.71550000       2.71550000      -0.00386215      -0.03953302      -0.00256053      -5.39135935
Si       2.71550000       2.71550000       0.00000000       0.02032428      -0.00903623      -0.03022060      -5.38957526
Si       2.71550000       0.00000000       2.71550000       0.73199016       0.47608695      -0.05311453      -5.20434948
Si       4.07325000       1.35775000       4.07325000       0.20258608       0.19583342      -0.02810643      -5.33722399
Si       1.35775000       1.35775000       1.35775000      -0.28634632      -0.17772292       0.09292088      -5.35392194
Si       1.35775000       4.07325000       4.07325000       0.03065789       0.07356590       0.00474805      -5.37312145
Si       4.07325000       4.07325000       1.35775000       0.04026303       0.03955521      -0.02086950      -5.37677854
Si       0.00000000       0.00000000       5.43100000      -0.08182658      -0.13249698      -0.03973683      -5.28592057
Si       0.00000000       2.71550000       8.14650000      -0.08112357       0.02915864       0.01631434      -5.39484776
Si       2.71550000       2.71550000       5.43100000       0.00483325      -0.01305113       0.04216768      -5.37172814
Si       2.71550000       0.00000000       8.14650000      -0.27105109      -0.01936128      -0.11704848      -5.35051219
Si       4.07325000       1.35775000       9.50425000       0.04905201       0.02495350      -0.01647717      -5.38602803
Si       1.35775000       1.35775000       6.78875000       0.12839175      -0.03748446       0.01138443      -5.39511207
Si       1.35775000       4.07325000       9.50425000      -0.02782445      -0.00918498       0.00977283      -5.39284102
Si       4.07325000       4.07325000       6.78875000       0.00965341       0.03592747       0.04299012      -5.37161120
Si       0.00000000       5.43100000       0.00000000      -0.26524809       0.08058521       0.06194548      -5.36454640
Si       0.00000000       8.14650000       2.71550000     -30.31751835      -0.00056461       0.14652918      -2.80679609
Si       2.71550000       8.14650000       0.00000000       0.22535796      -0.02973544      -0.25096950      -5.33719562
Si       2.71550000       5.43100000       2.71550000      -0.06185884      -0.17952569       0.00970920      -5.31065979
Si       4.07325000       6.78875000       4.07325000       0.73191221      -0.45941170      -0.11773700      -5.19810483
Si       1.35775000       6.78875000       1.35775000       0.49857627      -0.31023941      -0.24772484      -5.26427994
Si       1.35775000       9.50425000       4.07325000     -30.22553758       0.21918065       0.40327455      -2.50053846
Si       4.07325000       9.50425000       1.35775000       0.28426955      -0.01218358      -0.26957366      -5.32806619
Si       0.00000000       5.43100000       5.43100000       0.15933228       0.01237769       0.02273619      -5.39161351
Si       0.00000000       8.14650000       8.14650000       0.07540265       0.03479947      -0.04619201      -5.38703636
Si       2.71550000       8.14650000       5.43100000     -29.97253496       0.06896689       0.32779479      -2.52324002
Si       2.71550000       5.43100000       8.14650000       0.10159624      -0.03876302       0.00827774      -5.39113283
Si       4.07325000       6.78875000       9.50425000       0.00647916      -0.06268662      -0.01609901      -5.36360028
Si       1.35775000       6.78875000       6.78875000      -0.21997560       0.06586627      -0.15589767      -5.27593269
Si       1.35775000       9.50425000       9.50425000       0.03052688       0.00446332       0.01549055      -5.37511115
Si       4.07325000       9.50425000       6.78875000       0.67539207       0.03424844       0.38623627      -5.21173871
Si       5.43100000       0.00000000       0.00000000       0.01259364       0.09520674      -0.02758823      -5.36764572
Si       5.43100000       2.71550000       2.71550000       0.01452850      -0.00466768      -0.04748585      -5.37192806
Si       8.14650000       2.71550000       0.00000000      -0.02229615      -0.01019764      -0.00800230      -5.39255017
Si       8.14650000       0.00000000       2.71550000       0.06584297       0.00828797      -0.02654770      -5.37632204
Si       9.50425000       1.35775000       4.07325000       0.11424870      -0.02716381      -0.04595943      -5.38696164
Si       6.78875000       1.35775000       1.35775000      -0.01824106       0.04170326      -0.02051304      -5.38173254
Si       6.78875000       4.07325000       4.07325000       0.01695804      -0.01121961      -0.00904233      -5.37461744
Si       9.50425000       4.07325000       1.35775000       0.01636445       0.03528876      -0.01289880      -5.39232344
Si       5.43100000       0.00000000       5.43100000       0.21719861       0.30648463      -0.02890332      -5.33080675
Si       5.43100000       2.71550000       8.14650000      -0.01149772      -0.00138062       0.03489524      -5.38246315
Si       8.14650000       2.71550000       5.43100000       0.02061712       0.04296005       0.01850741      -5.38703987
Si       8.14650000       0.00000000       8.14650000      -0.02965652       0.01650673       0.04448277      -5.38734507
Si       9.50425000       1.35775000       9.50425000      -0.04842301       0.02262482      -0.02900419      -5.39423473
Si       6.78875000       1.35775000       6.78875000       0.01571182       0.02472515       0.07774376      -5.37279924
Si       6.78875000       4.07325000       9.50425000      -0.00412474      -0.01037810       0.00886232      -5.38745350
Si       9.50425000       4.07325000       6.78875000      -0.03384762      -0.06148244       0.03248621      -5.39205918
Si       5.43100000       5.43100000       0.00000000      -0.03028233      -0.02943211       0.00466178      -5.37932586
Si       5.43100000       8.14650000       2.71550000       0.10924380       0.02186449      -0.28257501      -5.31798000
Si       8.14650000       8.14650000       0.00000000       0.09249710      -0.04287486       0.01600540      -5.38189415
Si       8.14650000       5.43100000       2.71550000       0.04759372       0.01615561      -0.04348245      -5.38197663
Si       9.50425000       6.78875000       4.07325000       0.08665715       0.14616655      -0.07960064      -5.31279080
Si       6.78875000       6.78875000       1.35775000      -0.00324445      -0.06900323      -0.01656528      -5.36752957
Si       6.78875000       9.50425000       4.07325000      -0.10821896      -0.03246297       0.02712468      -5.36220570
Si       9.50425000       9.50425000       1.35775000       0.10776486      -0.04708122       0.14386480      -5.31569019
Si       5.43100000       5.43100000       5.43100000       0.19834311      -0.28575569       0.02096992      -5.33523807
Si       5.43100000       8.14650000       8.14650000       0.20408024       0.01462327       0.26287408      -5.33699680
Si       8.14650000       8.14650000       5.43100000      -0.06691173       0.01231122      -0.02603647      -5.36870388
Si       8.14650000       5.43100000       8.14650000       0.00930838      -0.05400655       0.03492048      -5.38569879
Si       9.50425000       6.78875000       9.50425000       0.03442375      -0.02461165       0.06802468      -5.39082494
Si       6.78875000       6.78875000       6.78875000      -0.00275211       0.01674212       0.00256964      -5.37496866
Si       6.78875000       9.50425000       9.50425000       0.01948342       0.03707132      -0.05577210      -5.37435805
Si       9.50425000       9.50425000       6.78875000       0.08795597      -0.00463233      -0.03112289      -5.38463212
B        1.35775000       8.14650000       2.71550000      28.53851744      -0.42296998      -0.50903128      -2.04809080
B        2.71550000       9.50425000       4.07325000      28.86588282       0.66949340      -0.10399001      -1.96705616
B        4.07325000       8.14650000       5.43100000      29.21938567      -0.31393685       0.42438119      -2.22780556
