67
Lattice="10.862 0.0 0.0 0.0 10.862 0.0 0.0 0.0 10.862" Properties=species:S:1:pos:R:3:forces:R:3:energies:R:1 energy=-358.43049514820575 stress="-0.025879620424843167 -0.0001264360041135026 0.00012643600411343174 -0.0001264360041135026 -0.018292304840450378 -0.0009729479549413514 0.00012643600411343174 -0.0009729479549413514 -0.01829230484045041" free_energy=-358.43049514820575 pbc="T T T"
Si       0.01845959      -0.02864696       0.02248563       0.00004046       0.00001689      -0.00000316      -5.36870711
Si       0.01845959       2.69301437       2.74414696       0.00004046       0.00000316      -0.00001689      -5.36870711
Si       2.69483335       2.69226104       0.02323896       0.00004921       0.00001305      -0.00001305      -5.36858351
Si       2.84940151       0.01170324       2.70379676       0.00001120      -0.00004535       0.00004535      -5.29951955
Si       4.14500768       1.40235851       4.06737604       0.00000420      -0.00002578       0.00001575      -5.33168229
Si       1.35885919       1.31941570       1.39608430      -0.00000413      -0.00004261       0.00004261      -5.33162500
Si       1.37023940       4.07386105       4.06753933      -0.00000474       0.00000598       0.00000385      -5.37715734
Si       4.04313347       4.07074854       1.37465398      -0.00001936      -0.00000152      -0.00000078      -5.37553441
Si      -0.10356728       0.07135038       5.47565880       0.00003072       0.00001222      -0.00002350      -5.32296244
Si       0.03543743       2.67816172       8.14317943      -0.00003051      -0.00000158      -0.00002487      -5.37314492
Si       2.70377969       2.68699977       5.39011913       0.00001396       0.00000792      -0.00001073      -5.36328016
Si       2.70607496      -0.00411385       8.14044360      -0.00000418      -0.00001186      -0.00000077      -5.36911037
Si       4.04313347       1.34084602       9.50675146      -0.00001936       0.00000078       0.00000152      -5.37553441
Si       1.37258085       1.33748524       6.76500353      -0.00001601      -0.00002273       0.00003503      -5.36994527
Si       1.33977730       4.05286215       9.52463785      -0.00001898      -0.00002107       0.00002107      -5.34327169
Si       3.98051908       4.03655496       6.77211037      -0.00001943      -0.00000888      -0.00002094      -5.32626546
Si       0.03543743       5.43432057       0.03733828      -0.00003051       0.00002487       0.00000158      -5.37314492
Si      -0.10356728       8.10184120       2.64414962       0.00003072       0.00002350      -0.00001222      -5.32296244
Si       2.70377969       8.18738087       0.02850023       0.00001396       0.00001073      -0.00000792      -5.36328016
Si       2.70607496       5.43705640       2.71961385      -0.00000418       0.00000077       0.00001186      -5.36911037
Si       4.07567088       6.77561163       4.02450529      -0.00000396       0.00001674      -0.00000084      -5.27301698
Si       1.37258085       6.81249647       1.37801476      -0.00001601      -0.00003503       0.00002273      -5.36994527
Si       0.99049888       9.49701036       4.08048964       0.00003797       0.00004578      -0.00004578      -5.10049264
Si       4.14500768       9.51012396       1.31314149       0.00000420      -0.00001575       0.00002578      -5.33168229
Si       0.03150051       5.44950058       5.40449331       0.00003582       0.00000029       0.00000052      -5.35669929
Si       0.03150051       8.17300669       8.12799942       0.00003582      -0.00000052      -0.00000029      -5.35669929
Si       2.78673899       8.16892641       5.40857359      -0.00000993       0.00003104      -0.00003104      -5.27762342
Si       2.66281712       5.42702757       8.15047243       0.00000254      -0.00001754       0.00001754      -5.34764562
Si       3.98051908       6.80538963       9.54094504      -0.00001943       0.00002094       0.00000888      -5.32626546
Si       1.36347612       6.81832847       6.75917153      -0.00000791      -0.00000322       0.00000322      -5.30554099
Si       1.37023940       9.50996067       9.50363895      -0.00000474      -0.00000385      -0.00000598      -5.37715734
Si       4.07567088       9.55299471       6.80188837      -0.00000396       0.00000084      -0.00001674      -5.27301698
Si       5.46370103       0.00771366      -0.04444390       0.00002577       0.00003309       0.00003737      -5.36998506
Si       5.46370103       2.75994390       2.70778634       0.00002577      -0.00003737      -0.00003309      -5.36998506
Si       8.26542527       2.68574812       0.02975188      -0.00001855      -0.00000047       0.00000047      -5.28824565
Si       8.11141815       0.01302948       2.70247052      -0.00000303       0.00002543      -0.00002543      -5.37098088
Si       9.45377851       1.38538220       4.07135829       0.00000179      -0.00001654       0.00000070      -5.37641441
Si       6.78042063       1.38688959       1.32861041      -0.00003505       0.00001047      -0.00001047      -5.34154519
Si       6.79235005       4.11172731       4.10908362      -0.00002805       0.00001164       0.00001809      -5.34451621
Si       9.55710146       4.06660336       1.40991736       0.00001067       0.00002036      -0.00000016      -5.33756009
Si       5.46069610       0.01629318       5.44617395      -0.00003120       0.00002248       0.00002141      -5.37215946
Si       5.31130313       2.66903699       8.08159981      -0.00000741      -0.00000472      -0.00000875      -5.31943274
Si       8.14345688       2.75144112       5.45308857      -0.00000104      -0.00000353      -0.00000484      -5.36986008
Si       8.14461183       0.00501287       8.16288991      -0.00000004       0.00002981      -0.00001644      -5.36948487
Si       9.55710146       1.30558264       9.51089664       0.00001067       0.00000016      -0.00002036      -5.33756009
Si       6.80260868       1.38343716       6.81093800      -0.00003041      -0.00001597       0.00000552      -5.37644731
Si       6.39841413       4.15636453       9.42113547       0.00002279      -0.00003469       0.00003469      -5.02624947
Si       9.60212320       4.04329515       6.74543281      -0.00001002       0.00000330       0.00002482      -5.33033018
Si       5.31130313       5.49590019       0.04646301      -0.00000741       0.00000875       0.00000472      -5.31943274
Si       5.46069610       8.13132605       2.69920682      -0.00003120      -0.00002141      -0.00002248      -5.37215946
Si       8.14345688       8.12441143      -0.03594112      -0.00000104       0.00000484       0.00000353      -5.36986008
Si       8.14461183       5.41461009       2.71048713      -0.00000004       0.00001644      -0.00002981      -5.36948487
Si       9.49669350       6.76957031       4.04926530       0.00000849      -0.00000064      -0.00000752      -5.37805092
Si       6.80260868       6.76656200       1.33206284      -0.00003041      -0.00000552       0.00001597      -5.37644731
Si       6.78139244       9.50043337       4.07706663      -0.00000267      -0.00003827       0.00003827      -5.36099966
Si       9.45377851       9.50614171       1.33011780       0.00000179      -0.00000070       0.00001654      -5.37641441
Si       5.32974818       5.42097278       5.44729066       0.00000034       0.00003621      -0.00004024      -5.29228185
Si       5.32974818       8.13020934       8.15652722       0.00000034       0.00004024      -0.00003621      -5.29228185
Si       8.22211924       8.18812419       5.38937581       0.00000308       0.00002737      -0.00002737      -5.30883884
Si       8.39246511       5.36630911       8.21119089       0.00000829       0.00000610      -0.00000610      -5.28411436
Si       9.60212320       6.83206719       9.53420485      -0.00001002      -0.00002482      -0.00000330      -5.33033018
Si       7.16906460       6.74417307       6.83332693       0.00008667       0.00000296      -0.00000296      -5.06879455
Si       6.79235005       9.46841638       9.46577269      -0.00002805      -0.00001809      -0.00001164      -5.34451621
Si       9.49669350       9.52823470       6.80792969       0.00000849       0.00000752       0.00000064      -5.37805092
B        2.83269232       9.52416644       4.05333356       0.00003490      -0.00002081       0.00002081      -5.69853406
B        5.32804496       6.72542786       6.85207214      -0.00003755      -0.00001008       0.00001008      -5.68143714
B        8.22712303       4.02185445       9.55564555      -0.00005056      -0.00003173       0.00003173      -5.73839447
