67
Lattice="10.862 0.0 0.0 0.0 10.862 0.0 0.0 0.0 10.862" Properties=species:S:1:pos:R:3:forces:R:3:energies:R:1 energy=-359.98193434185964 stress="-0.02069537107398456 9.97154542239213e-06 0.0035797536165521754 9.97154542239213e-06 -0.014868087640518961 0.001239106746449686 0.0035797536165521754 0.001239106746449686 -0.0177761099812471" free_energy=-359.98193434185964 pbc="T T T"
Si       0.04664966       0.01346497       0.00844004      -0.00024384       0.00083402      -0.00087398      -5.36369995
Si       0.04486129       2.72789039       2.73310650       0.00001807       0.00002552      -0.00013568      -5.36783029
Si       2.73232270       2.73289365       0.01438870       0.00082409       0.00067710      -0.00103418      -5.37405812
Si       2.75966543      -0.06247748       2.74950059       0.00967026       0.01560241      -0.00874965      -5.27449969
Si       4.08491497       1.35615335       4.06493287      -0.00047019       0.00007962      -0.00113305      -5.35238086
Si       1.40876241       1.33630066       1.38541439      -0.00409163       0.00162667      -0.00106464      -5.35423567
Si       1.37484000       4.10510577       4.10150048      -0.00028727       0.00020010       0.00059476      -5.35778172
Si       4.04973781       4.15123066       1.37948047      -0.00006212       0.00023959       0.00007848      -5.33448262
Si      -0.08364765       0.10768520       5.55901735       0.00160850      -0.00169421      -0.00123178      -5.26276175
Si       0.01766439       2.73492525       8.18127721       0.00007861      -0.00004379      -0.00004675      -5.39280432
Si       2.73590778       2.72773626       5.42216337      -0.00028386       0.00023322       0.00026240      -5.38526891
Si       2.74399525      -0.02550132       8.06136968       0.00029806       0.00023000      -0.00018897      -5.33239395
Si       4.06993051       1.36168696       9.47972147      -0.00025082      -0.00016534       0.00023151      -5.36940597
Si       1.38084885       1.40682508       6.81020144       0.00019810       0.00034154       0.00013909      -5.33330179
Si       1.38140268       4.09421009       9.51653486       0.00011894      -0.00011674      -0.00023060      -5.39000837
Si       4.07754731       4.09788898       6.77962455       0.00014229       0.00004934       0.00003028      -5.38379680
Si       0.01950929       5.42865659       0.02065341       0.00014230       0.00021441      -0.00018465      -5.33382087
Si      -0.09224204       8.08057450       2.72030057       0.00408969       0.00027136      -0.00082240      -5.22976486
Si       2.80096533       8.21981184      -0.10746520       0.00001449      -0.00005745       0.00083228      -5.33538390
Si       2.72516345       5.53822478       2.82968237       0.00298388      -0.00285926      -0.00259526      -5.29166833
Si       4.37963072       6.75166669       4.03962344      -0.00310338       0.00373799       0.00053018      -5.28477046
Si       1.45119947       6.87694290       1.18294294      -0.00111018       0.00070092       0.00629848      -5.19974164
Si       0.96067603       9.81972104       3.91784503       0.00967507      -0.00956111      -0.00172426      -5.09159312
Si       4.13672667       9.50135165       1.32721459      -0.00013677       0.00239721       0.00013898      -5.36099732
Si      -0.02908054       5.42394638       5.45147353       0.00020907       0.00011478       0.00025444      -5.40098749
Si      -0.05709247       8.14682567       8.21365117       0.00054034      -0.00023554      -0.00100664      -5.36956187
Si       1.97784241       8.67069669       5.86705014      -0.00316388       0.00018756      -0.00025928      -4.97694550
Si       2.72404596       5.46148211       8.13319639      -0.00017181      -0.00013688      -0.00008226      -5.37215222
Si       4.11544305       6.80771632       9.45619996       0.00012699      -0.00001066      -0.00021560      -5.38722494
Si       1.22450371       6.75641983       6.88067841      -0.00099118      -0.00011467       0.00196470      -5.17940111
Si       1.37144015       9.53679197       9.46780419      -0.00002780       0.00015997       0.00021251      -5.34074959
Si       4.14906550       9.47020649       6.67426444       0.00080921      -0.00023721       0.00024040      -5.33791596
Si       5.45516084       0.03603958      -0.02081441      -0.00067625      -0.00072292       0.00083839      -5.36862426
Si       5.42078811       2.73701149       2.70131364       0.00030458       0.00036761       0.00010177      -5.36930198
Si       8.17081347       2.73552415       0.01187498       0.00015222       0.00006918      -0.00009289      -5.38935082
Si       8.18854044       0.03057164       2.69413126       0.00033737      -0.00000166      -0.00004188      -5.35123361
Si       9.50370550       1.40127860       4.08557246       0.00026411       0.00012259      -0.00024813      -5.36036775
Si       6.80473644       1.38641071       1.35097284      -0.00036734      -0.00024530       0.00023833      -5.38241719
Si       6.81361443       4.05138684       4.06635313       0.00026681      -0.00008503       0.00004856      -5.36989861
Si       9.54434043       4.07563605       1.38028140      -0.00013641      -0.00032363       0.00014342      -5.38735431
Si       5.48070056       0.03510145       5.39347203      -0.00045975      -0.00061446      -0.00003125      -5.36425150
Si       5.42543192       2.73358786       8.14629729       0.00005346       0.00004845      -0.00005799      -5.38732868
Si       8.15026939       2.72698892       5.44615377       0.00003044      -0.00009094       0.00003161      -5.37897481
Si       8.14586597       0.03168215       8.16957031       0.00006383      -0.00009078       0.00000672      -5.39099977
Si       9.52525225       1.37042404       9.52853538       0.00006142      -0.00014471       0.00010622      -5.38817618
Si       6.79537495       1.37905094       6.80162174       0.00006306      -0.00002996      -0.00001112      -5.36607735
Si       6.78758249       4.06946488       9.51788803      -0.00009749      -0.00004969      -0.00002525      -5.38599088
Si       9.50300777       4.06261920       6.81993206       0.00000951      -0.00007761      -0.00006504      -5.37526956
Si       5.43331669       5.44776226      -0.00736723       0.00005367       0.00012380       0.00012348      -5.36347214
Si       5.57520560       8.15251197       2.62484039      -0.00128327       0.00012981       0.00058505      -5.32077405
Si       8.16637023       8.16548265      -0.01907499      -0.00030797       0.00010608      -0.00011053      -5.37227627
Si       8.16561011       5.41425775       2.71634400      -0.00014108       0.00006441       0.00007773      -5.37440673
Si       9.46190708       6.76981700       4.10608089       0.00036714      -0.00045690      -0.00007353      -5.32330124
Si       6.85587908       6.76579266       1.30896028       0.00029051       0.00005024      -0.00019175      -5.36025789
Si       6.83467873       9.53100074       4.03765926      -0.00019263       0.00011451      -0.00016031      -5.36288481
Si       9.53982649       9.51447785       1.32712960      -0.00005128      -0.00023710       0.00049294      -5.33285752
Si       5.53036240       5.38423252       5.47721222       0.00002912      -0.00043722       0.00006485      -5.33448468
Si       5.46514516       8.15585007       8.11305274       0.00012549       0.00019055       0.00021631      -5.35293282
Si       8.14503631       8.16824762       5.43732716       0.00007496       0.00008096       0.00010804      -5.34696569
Si       8.15456700       5.42077085       8.17603122       0.00005589      -0.00003085       0.00006860      -5.37523313
Si       9.49731731       6.76615067       9.54473907      -0.00012387       0.00006017      -0.00010477      -5.37210737
Si       6.83264689       6.79033133       6.80742971       0.00006183       0.00004279      -0.00006643      -5.38893872
Si       6.79519055       9.52373443       9.48985612      -0.00002727      -0.00026883       0.00005753      -5.37149043
Si       9.47597331       9.51282075       6.83551721       0.00003867      -0.00025888       0.00011312      -5.31655940
B        1.75594884       7.34207738       3.02373152      -0.00396050       0.00342555      -0.00212582      -5.95773520
B        2.51327181       8.62605624       3.87537206      -0.01091849      -0.01403102       0.01428281      -6.13997037
B        3.68586140       8.26204286       5.06596349      -0.00111374       0.00051034      -0.00452764      -6.07827864
