67
Lattice="10.862 0.0 0.0 0.0 10.862 0.0 0.0 0.0 10.862" Properties=species:S:1:pos:R:3:forces:R:3:energies:R:1 energy=-341.2987572407801 stress="-0.11451667418660522 0.000247638143423977 -0.00024763814342360817 0.000247638143423977 -0.019446869116777267 -0.00011439012529090849 -0.00024763814342360817 -0.00011439012529090849 -0.019446869116777253" free_energy=-341.2987572407801 pbc="T T T"
Si       0.00000000       0.00000000       0.00000000       0.02110226       0.01137721       0.04054853      -5.39254106
Si       0.00000000       2.71550000       2.71550000       0.02110226      -0.04054853      -0.01137721      -5.39254106
Si       2.71550000       2.71550000       0.00000000       0.00590943      -0.01302898       0.01302898      -5.39116957
Si       2.71550000       0.00000000       2.71550000       0.45612598       0.28978050      -0.28978050      -5.26439209
Si       4.07325000       1.35775000       4.07325000       0.25147908       0.26855686      -0.05697121      -5.33457160
Si       1.35775000       1.35775000       1.35775000      -0.23801173      -0.08295852       0.08295852      -5.35955116
Si       1.35775000       4.07325000       4.07325000       0.06104678       0.05134744       0.01131055      -5.38308573
Si       4.07325000       4.07325000       1.35775000       0.05973959      -0.00925456      -0.01382708      -5.38372611
Si       0.00000000       0.00000000       5.43100000       0.08777972      -0.13599249      -0.07808610      -5.31381026
Si       0.00000000       2.71550000       8.14650000      -0.05050028      -0.00016656       0.03288260      -5.39135442
Si       2.71550000       2.71550000       5.43100000       0.01733616      -0.00076055      -0.00552010      -5.36763664
Si       2.71550000       0.00000000       8.14650000      -0.26589004      -0.07871757      -0.10085052      -5.34679341
Si       4.07325000       1.35775000       9.50425000       0.05973959       0.01382708       0.00925456      -5.38372611
Si       1.35775000       1.35775000       6.78875000       0.06482504       0.00871114       0.06092999      -5.38814784
Si       1.35775000       4.07325000       9.50425000      -0.08068305      -0.05092502       0.05092502      -5.38229118
Si       4.07325000       4.07325000       6.78875000      -0.17681514      -0.25325370      -0.02086731      -5.32849905
Si       0.00000000       5.43100000       0.00000000      -0.05050028      -0.03288260       0.00016656      -5.39135442
Si       0.00000000       8.14650000       2.71550000       0.08777972       0.07808610       0.13599249      -5.31381026
Si       2.71550000       8.14650000       0.00000000       0.01733616       0.00552010       0.00076055      -5.36763664
Si       2.71550000       5.43100000       2.71550000      -0.26589004       0.10085052       0.07871757      -5.34679341
Si       4.07325000       6.78875000       4.07325000       0.55204627      -0.49535454      -0.45748162      -5.15214415
Si       1.35775000       6.78875000       1.35775000       0.06482504      -0.06092999      -0.00871114      -5.38814784
Si       1.35775000       9.50425000       4.07325000     -30.29292067      -0.06142781       0.06142781      -2.80912588
Si       4.07325000       9.50425000       1.35775000       0.25147908       0.05697121      -0.26855686      -5.33457160
Si       0.00000000       5.43100000       5.43100000       0.11790951       0.04748180      -0.03952799      -5.38269436
Si       0.00000000       8.14650000       8.14650000       0.11790951       0.03952799      -0.04748180      -5.38269436
Si       2.71550000       8.14650000       5.43100000     -30.66856800      -0.18536927       0.18536927      -2.55403718
Si       2.71550000       5.43100000       8.14650000       0.05574874       0.04626906      -0.04626906      -5.38808403
Si       4.07325000       6.78875000       9.50425000      -0.17681514       0.02086731       0.25325370      -5.32849905
Si       1.35775000       6.78875000       6.78875000      -0.04044792       0.04924856      -0.04924856      -5.27173678
Si       1.35775000       9.50425000       9.50425000       0.06104678      -0.01131055      -0.05134744      -5.38308573
Si       4.07325000       9.50425000       6.78875000       0.55204627       0.45748162       0.49535454      -5.15214415
Si       5.43100000       0.00000000       0.00000000      -0.06237601       0.03378050       0.00357425      -5.37700731
Si       5.43100000       2.71550000       2.71550000      -0.06237601      -0.00357425      -0.03378050      -5.37700731
Si       8.14650000       2.71550000       0.00000000       0.02550578      -0.01564241       0.01564241      -5.38914185
Si       8.14650000       0.00000000       2.71550000       0.03270162       0.05446448      -0.05446448      -5.37526428
Si       9.50425000       1.35775000       4.07325000       0.08654536      -0.02801861      -0.04930390      -5.38890697
Si       6.78875000       1.35775000       1.35775000       0.01259268       0.00972476      -0.00972476      -5.38450059
Si       6.78875000       4.07325000       4.07325000       0.25298475       0.07525348       0.01550879      -5.34899878
Si       9.50425000       4.07325000       1.35775000      -0.00245313       0.00292034      -0.02299972      -5.39754391
Si       5.43100000       0.00000000       5.43100000       0.21262565       0.20807048       0.01002782      -5.32119591
Si       5.43100000       2.71550000       8.14650000      -0.03307897       0.05651131       0.03824855      -5.37230293
Si       8.14650000       2.71550000       5.43100000      -0.00735694       0.05706831      -0.00216933      -5.38254148
Si       8.14650000       0.00000000       8.14650000      -0.08420946      -0.03118214       0.03272672      -5.38238668
Si       9.50425000       1.35775000       9.50425000      -0.00245313       0.02299972      -0.00292034      -5.39754391
Si       6.78875000       1.35775000       6.78875000       0.02138935      -0.01105686       0.05845180      -5.37179132
Si       6.78875000       4.07325000       9.50425000      -0.07936609      -0.03661436       0.03661436      -5.38898742
Si       9.50425000       4.07325000       6.78875000      -0.05849852      -0.00041507      -0.00654936      -5.38995806
Si       5.43100000       5.43100000       0.00000000      -0.03307897      -0.03824855      -0.05651131      -5.37230293
Si       5.43100000       8.14650000       2.71550000       0.21262565      -0.01002782      -0.20807048      -5.32119591
Si       8.14650000       8.14650000       0.00000000      -0.00735694       0.00216933      -0.05706831      -5.38254148
Si       8.14650000       5.43100000       2.71550000      -0.08420946      -0.03272672       0.03118214      -5.38238668
Si       9.50425000       6.78875000       4.07325000      -0.01698797      -0.00589425       0.04625455      -5.38228210
Si       6.78875000       6.78875000       1.35775000       0.02138935      -0.05845180       0.01105686      -5.37179132
Si       6.78875000       9.50425000       4.07325000      -0.15588179      -0.00976087       0.00976087      -5.37091911
Si       9.50425000       9.50425000       1.35775000       0.08654536       0.04930390       0.02801861      -5.38890697
Si       5.43100000       5.43100000       5.43100000      -0.32843498      -0.61668539      -0.32582992      -5.22116645
Si       5.43100000       8.14650000       8.14650000      -0.32843498       0.32582992       0.61668539      -5.22116645
Si       8.14650000       8.14650000       5.43100000      -0.11682767      -0.10244552       0.10244552      -5.29971860
Si       8.14650000       5.43100000       8.14650000      -0.03012942       0.10206762      -0.10206762      -5.31212085
Si       9.50425000       6.78875000       9.50425000      -0.05849852       0.00654936       0.00041507      -5.38995806
Si       6.78875000       6.78875000       6.78875000      30.73655702      -0.01141249       0.01141249      -2.87853299
Si       6.78875000       9.50425000       9.50425000       0.25298475      -0.01550879      -0.07525348      -5.34899878
Si       9.50425000       9.50425000       6.78875000      -0.01698797      -0.04625455       0.00589425      -5.38228210
B        2.71550000       9.50425000       4.07325000      28.51731995       0.31660045      -0.31660045      -2.09849331
B        4.07325000       8.14650000       5.43100000      29.12066297      -0.19348673       0.19348673      -2.15866271
B        5.43100000       6.78875000       6.78875000     -28.70070399      -0.08893006       0.08893006      -2.21985459
