67
Lattice="10.862 0.0 0.0 0.0 10.862 0.0 0.0 0.0 10.862" Properties=species:S:1:pos:R:3:forces:R:3:energies:R:1 energy=-360.0169019582841 stress="-0.02040431834943004 -0.0002856445875299894 0.0029635429864998245 -0.0002856445875299894 -0.016970792685711174 0.002667332162867975 0.0029635429864998245 0.002667332162867975 -0.018565929572282598" free_energy=-360.0169019582841 pbc="T T T"
Si       0.03999365       0.03854142      -0.00741911       0.00000137      -0.00000708       0.00001025      -5.36929401
Si       0.02961165       2.75144647       2.72375542      -0.00000308      -0.00000460       0.00000651      -5.37132340
Si       2.74088975       2.75548417      -0.02156549      -0.00000117      -0.00000465       0.00000796      -5.37873358
Si       2.75086487       0.07292788       2.66265034      -0.00001139      -0.00001609       0.00002092      -5.29725839
Si       4.09168964       1.38886174       4.05287113      -0.00000338      -0.00000781       0.00000402      -5.36776975
Si       1.38542510       1.41454929       1.33355417       0.00000276      -0.00000865       0.00000878      -5.37867701
Si       1.37200503       4.09640446       4.10361233      -0.00000172      -0.00000136       0.00000288      -5.34130719
Si       4.06877484       4.14405226       1.35253201      -0.00000488       0.00000005       0.00000565      -5.33146376
Si      -0.02825684       0.06428057       5.48502875      -0.00002486       0.00002361       0.00002674      -5.30507136
Si       0.01610365       2.73641236       8.16220739      -0.00000378       0.00000053       0.00001043      -5.38555818
Si       2.73555286       2.73829099       5.42480118      -0.00000217      -0.00000258       0.00000360      -5.38648011
Si       2.74460478      -0.02487194       8.05669713       0.00000156       0.00000080      -0.00000183      -5.33418469
Si       4.07530375       1.36742828       9.46334924      -0.00000069      -0.00000338       0.00000447      -5.36818299
Si       1.37770287       1.39578683       6.79060356      -0.00000377       0.00000147       0.00000482      -5.33709897
Si       1.37491298       4.10216085       9.50581975      -0.00000182      -0.00000404       0.00000816      -5.38910401
Si       4.07830641       4.11489897       6.77107265      -0.00000460      -0.00000182       0.00000258      -5.37619204
Si       0.01953738       5.44060473       0.02092831      -0.00000660      -0.00000298      -0.00000311      -5.33654827
Si      -0.07491029       8.11943824       2.71064449       0.00000539      -0.00001275       0.00001270      -5.21998391
Si       2.78080171       8.22436705      -0.07224678       0.00000707       0.00000680      -0.00001692      -5.34206852
Si       2.73969482       5.48093188       2.81159470      -0.00000627       0.00000364      -0.00000164      -5.26850591
Si       4.36287745       6.76160532       4.01616572       0.00002433      -0.00002254      -0.00001445      -5.27788364
Si       1.43419847       6.87301526       1.22465250       0.00000498       0.00000717      -0.00001734      -5.21617669
Si       1.15816228       9.77933153       3.89376345      -0.00001924      -0.00000796       0.00001011      -5.15142782
Si       4.11393018       9.53219779       1.33856228      -0.00000360      -0.00000985       0.00000719      -5.37977674
Si      -0.02850465       5.43313673       5.44520332      -0.00000109       0.00000084       0.00000514      -5.38564170
Si      -0.06994857       8.16194452       8.22310674       0.00000364      -0.00000395      -0.00000590      -5.36815516
Si       1.99663970       8.60946570       5.98728260       0.00002562      -0.00000334      -0.00004424      -4.96004444
Si       2.73169174       5.46131321       8.14929755      -0.00000660      -0.00000257       0.00000274      -5.36839804
Si       4.11018383       6.82508185       9.47319315       0.00000081      -0.00000572      -0.00000300      -5.38420747
Si       1.18996963       6.71462099       6.94754058       0.00001580       0.00001096      -0.00001561      -5.15878808
Si       1.36953468       9.54582554       9.47181691      -0.00000050       0.00000138      -0.00000625      -5.33309931
Si       4.16545732       9.46455172       6.69390907      -0.00000195      -0.00000486      -0.00001198      -5.33291772
Si       5.45066943       0.04086918      -0.02531544      -0.00000684      -0.00000147       0.00001122      -5.37459118
Si       5.43880243       2.75391662       2.69251820      -0.00000963      -0.00000545       0.00000299      -5.37182240
Si       8.16816286       2.74660973      -0.00305468      -0.00000227       0.00000136       0.00000532      -5.38556395
Si       8.18497533       0.04270522       2.68607736      -0.00000106       0.00000168       0.00000385      -5.36161210
Si       9.51718736       1.39425516       4.07167788      -0.00001151       0.00000678       0.00000774      -5.36877532
Si       6.80611805       1.39602849       1.33831414      -0.00000122      -0.00000040       0.00000318      -5.38330050
Si       6.82195004       4.06875547       4.06115813      -0.00000725      -0.00000663      -0.00000127      -5.37200772
Si       9.53027588       4.09390800       1.37203364       0.00000397      -0.00000427       0.00000316      -5.38849827
Si       5.46673569       0.03901054       5.38333195       0.00000263       0.00000238       0.00000317      -5.35894942
Si       5.42957296       2.74276616       8.13043058      -0.00000534       0.00000247       0.00000717      -5.38881865
Si       8.15503988       2.72361587       5.43138138      -0.00000778       0.00000765       0.00001033      -5.38166389
Si       8.15196611       0.03624344       8.14413843      -0.00000467       0.00000365       0.00001376      -5.39201057
Si       9.51872039       1.38081196       9.50772892       0.00000103      -0.00000230       0.00001188      -5.38942262
Si       6.79191218       1.38102978       6.78336091      -0.00000163       0.00000286       0.00000968      -5.37410449
Si       6.78707542       4.08165200       9.50600678      -0.00000278      -0.00000167       0.00000475      -5.38687273
Si       9.49828260       4.06582416       6.80600628       0.00000091       0.00000131       0.00000710      -5.37163142
Si       5.44284816       5.46459071      -0.01151720      -0.00000532      -0.00000421       0.00000365      -5.36912795
Si       5.55284797       8.18125178       2.62678847       0.00001453      -0.00000680      -0.00000828      -5.32622893
Si       8.16413317       8.18072279      -0.01764608       0.00000102       0.00000111      -0.00000184      -5.37485335
Si       8.16632539       5.44251955       2.71484176      -0.00000351      -0.00000934       0.00000173      -5.37232566
Si       9.47278038       6.79856198       4.09728604      -0.00000842      -0.00000814       0.00000539      -5.31208372
Si       6.84641015       6.79360275       1.31480240       0.00000728      -0.00001006      -0.00000872      -5.36522613
Si       6.83197965       9.54451568       4.03425388      -0.00000000      -0.00000042      -0.00000015      -5.37749611
Si       9.53730832       9.53831692       1.31631229       0.00000218      -0.00000762       0.00000905      -5.33000365
Si       5.52406316       5.40057063       5.46196102       0.00000253      -0.00000515       0.00000769      -5.33580268
Si       5.47685631       8.16150098       8.13049253      -0.00000593      -0.00000185      -0.00000270      -5.35716192
Si       8.14701166       8.17916561       5.42959927      -0.00000510       0.00000240       0.00000566      -5.35445726
Si       8.15460017       5.42936303       8.16625600      -0.00000271      -0.00000185       0.00000592      -5.37131484
Si       9.48898250       6.77586164       9.54730288       0.00000111      -0.00000030      -0.00000344      -5.36602906
Si       6.83008096       6.80129221       6.80036763       0.00000094      -0.00000226       0.00000351      -5.38706019
Si       6.80390831       9.53842879       9.48634247      -0.00000944      -0.00000038       0.00000503      -5.37547527
Si       9.49689944       9.52151249       6.80494936      -0.00000500       0.00000312       0.00000717      -5.31728809
B        1.63541382       7.13365159       3.13478629       0.00004016       0.00003843      -0.00004946      -5.99554515
B        2.43114786       8.29979683       4.06773364       0.00001967       0.00006666      -0.00006375      -6.07782827
B        3.70865535       8.17593564       5.17005785       0.00002924       0.00002007      -0.00004386      -6.00062557
