67
Lattice="10.862 0.0 0.0 0.0 10.862 0.0 0.0 0.0 10.862" Properties=species:S:1:pos:R:3:forces:R:3:energies:R:1 energy=-342.038700611969 stress="-0.11288806759976015 -0.00014202024690947724 0.0001420202469098614 -0.00014202024690947724 -0.01895608478554778 0.0005965216579494726 0.0001420202469098614 0.0005965216579494726 -0.01895608478554782" free_energy=-342.038700611969 pbc="T T T"
Si       0.00000000       0.00000000       0.00000000       0.02475282       0.03871062       0.04847387      -5.38005546
Si       0.00000000       2.71550000       2.71550000       0.02475282      -0.04847387      -0.03871062      -5.38005546
Si       2.71550000       2.71550000       0.00000000       0.03709772      -0.02764563       0.02764563      -5.38510678
Si       2.71550000       0.00000000       2.71550000       0.42995827       0.25770572      -0.25770572      -5.26291054
Si       4.07325000       1.35775000       4.07325000       0.18868995       0.29641284      -0.04147859      -5.34240918
Si       1.35775000       1.35775000       1.35775000      -0.25478801      -0.04989049       0.04989049      -5.35531487
Si       1.35775000       4.07325000       4.07325000       0.03835607       0.00994187       0.00492656      -5.37958811
Si       4.07325000       4.07325000       1.35775000       0.06607532      -0.04677421      -0.06367646      -5.38099513
Si       0.00000000       0.00000000       5.43100000      -0.01387171      -0.09073456      -0.13937911      -5.31144996
Si       0.00000000       2.71550000       8.14650000      -0.01779009       0.01647313       0.05192359      -5.37836398
Si       2.71550000       2.71550000       5.43100000       0.03645372      -0.03641562      -0.04481097      -5.36745227
Si       2.71550000       0.00000000       8.14650000       0.04374936      -0.05901894      -0.06243765      -5.36970522
Si       4.07325000       1.35775000       9.50425000       0.06607532       0.06367646       0.04677421      -5.38099513
Si       1.35775000       1.35775000       6.78875000       0.04896555       0.00288787       0.00154308      -5.38129453
Si       1.35775000       4.07325000       9.50425000      -0.19137677      -0.03983777       0.03983777      -5.36706944
Si       4.07325000       4.07325000       6.78875000      -0.13230101      -0.27951981       0.02567995      -5.33538319
Si       0.00000000       5.43100000       0.00000000      -0.01779009      -0.05192359      -0.01647313      -5.37836398
Si       0.00000000       8.14650000       2.71550000      -0.01387171       0.13937911       0.09073456      -5.31144996
Si       2.71550000       8.14650000       0.00000000       0.03645372       0.04481097       0.03641562      -5.36745227
Si       2.71550000       5.43100000       2.71550000       0.04374936       0.06243765       0.05901894      -5.36970522
Si       4.07325000       6.78875000       4.07325000      -0.05231494      -0.30303749      -0.28164906      -5.28832961
Si       1.35775000       6.78875000       1.35775000       0.04896555      -0.00154308      -0.00288787      -5.38129453
Si       1.35775000       9.50425000       4.07325000     -30.06165080       0.00948461      -0.00948461      -2.94800753
Si       4.07325000       9.50425000       1.35775000       0.18868995       0.04147859      -0.29641284      -5.34240918
Si       0.00000000       5.43100000       5.43100000       0.03094416       0.03849698       0.02738059      -5.37582855
Si       0.00000000       8.14650000       8.14650000       0.03094416      -0.02738059      -0.03849698      -5.37582855
Si       2.71550000       8.14650000       5.43100000       0.43379630      -0.27119855       0.27119855      -5.23670010
Si       2.71550000       5.43100000       8.14650000       0.01780775       0.05364299      -0.05364299      -5.37673759
Si       4.07325000       6.78875000       9.50425000      -0.13230101      -0.02567995       0.27951981      -5.33538319
Si       1.35775000       6.78875000       6.78875000      -0.12810512       0.03390641      -0.03390641      -5.34137942
Si       1.35775000       9.50425000       9.50425000       0.03835607      -0.00492656      -0.00994187      -5.37958811
Si       4.07325000       9.50425000       6.78875000      -0.05231494       0.28164906       0.30303749      -5.28832961
Si       5.43100000       0.00000000       0.00000000      -0.02040502       0.03429346       0.02762445      -5.38070814
Si       5.43100000       2.71550000       2.71550000      -0.02040502      -0.02762445      -0.03429346      -5.38070814
Si       8.14650000       2.71550000       0.00000000       0.45194224      -0.27071710       0.27071710      -5.26122705
Si       8.14650000       0.00000000       2.71550000       0.05859359       0.03132968      -0.03132968      -5.38594950
Si       9.50425000       1.35775000       4.07325000       0.07575757      -0.07873216      -0.02452711      -5.38731327
Si       6.78875000       1.35775000       1.35775000      -0.23925784       0.05447603      -0.05447603      -5.35915925
Si       6.78875000       4.07325000       4.07325000       0.24270105       0.05550049       0.07418607      -5.35613069
Si       9.50425000       4.07325000       1.35775000       0.19627284      -0.00961870       0.28171073      -5.34869905
Si       5.43100000       0.00000000       5.43100000      -0.03700402      -0.08683956      -0.04847298      -5.36601502
Si       5.43100000       2.71550000       8.14650000      -0.03962292       0.16726338       0.11720182      -5.29917093
Si       8.14650000       2.71550000       5.43100000      -0.01665969       0.06056620       0.05974968      -5.37406238
Si       8.14650000       0.00000000       8.14650000      -0.01729586       0.03972786       0.03727235      -5.37414950
Si       9.50425000       1.35775000       9.50425000       0.19627284      -0.28171073       0.00961870      -5.34869905
Si       6.78875000       1.35775000       6.78875000       0.09121628       0.00450309       0.00501001      -5.38267235
Si       6.78875000       4.07325000       9.50425000     -30.23602457      -0.07249488       0.07249488      -2.92426716
Si       9.50425000       4.07325000       6.78875000       0.12046335       0.04869576      -0.32909107      -5.34004628
Si       5.43100000       5.43100000       0.00000000      -0.03962292      -0.11720182      -0.16726338      -5.29917093
Si       5.43100000       8.14650000       2.71550000      -0.03700402       0.04847298       0.08683956      -5.36601502
Si       8.14650000       8.14650000       0.00000000      -0.01665969      -0.05974968      -0.06056620      -5.37406238
Si       8.14650000       5.43100000       2.71550000      -0.01729586      -0.03727235      -0.03972786      -5.37414950
Si       9.50425000       6.78875000       4.07325000       0.00148274       0.04012742       0.05605352      -5.38296679
Si       6.78875000       6.78875000       1.35775000       0.09121628      -0.00501001      -0.00450309      -5.38267235
Si       6.78875000       9.50425000       4.07325000      -0.21071878       0.04882028      -0.04882028      -5.37651002
Si       9.50425000       9.50425000       1.35775000       0.07575757       0.02452711       0.07873216      -5.38731327
Si       5.43100000       5.43100000       5.43100000      -0.39539720      -0.25216268      -0.18441238      -5.24875844
Si       5.43100000       8.14650000       8.14650000      -0.39539720       0.18441238       0.25216268      -5.24875844
Si       8.14650000       8.14650000       5.43100000       0.04836169      -0.16080053       0.16080053      -5.31288820
Si       8.14650000       5.43100000       8.14650000       0.53500242       0.34514217      -0.34514217      -5.18629830
Si       9.50425000       6.78875000       9.50425000       0.12046335       0.32909107      -0.04869576      -5.34004628
Si       6.78875000       6.78875000       6.78875000      30.12495104       0.08404893      -0.08404893      -2.89575551
Si       6.78875000       9.50425000       9.50425000       0.24270105      -0.07418607      -0.05550049      -5.35613069
Si       9.50425000       9.50425000       6.78875000       0.00148274      -0.05605352      -0.04012742      -5.38296679
B        2.71550000       9.50425000       4.07325000      28.55185551      -0.02701714       0.02701714      -2.35400397
B        5.43100000       6.78875000       6.78875000     -28.94505690       0.01604561      -0.01604561      -2.31183900
B        8.14650000       4.07325000       9.50425000      28.65117565      -0.02694670       0.02694670      -2.33448035
