64
Lattice="10.862 0.0 0.0 0.0 10.862 0.0 0.0 0.0 10.862" Properties=species:S:1:pos:R:3:forces:R:3:energies:R:1 energy=-345.7661893396656 stress="0.001730505731486864 1.1119210873023876e-05 -1.1119210872967405e-05 1.1119210873023876e-05 0.001730505731486842 -1.1119210873099967e-05 -1.1119210872967405e-05 -1.1119210873099967e-05 0.0017305057314868828" free_energy=-345.7661893396656 pbc="T T T"
Si       0.00223415       0.00223415      -0.00223415      -0.00000520      -0.00000520       0.00000520      -5.39428696
Si       0.01460622       2.72887233       2.73832167       0.00001938       0.00001565      -0.00001319      -5.37421889
Si       2.72350207       2.72350207      -0.01580879      -0.00000506      -0.00000506       0.00001469      -5.38357932
Si       2.72887233       0.01460622       2.73832167       0.00001565       0.00001938      -0.00001319      -5.37421889
Si       4.07324791       1.41076097       4.11711654       0.00004037       0.00003747       0.00002386      -5.36310583
Si       1.36564266       1.36564266       1.36182535       0.00002668       0.00002668      -0.00005623      -5.39040415
Si       1.41076097       4.07324791       4.11711654       0.00003747       0.00004037       0.00002386      -5.36310583
Si       4.07487377       4.07487377       1.36905649       0.00005140       0.00005140       0.00001185      -5.37614142
Si       0.01783298       0.01783298       5.43915324      -0.00002094      -0.00002094       0.00008395      -5.36434809
Si       0.01580879       2.72350207       8.13849793      -0.00001469      -0.00000506       0.00000506      -5.38357932
Si       2.89249712       2.89249712       5.55066163      -0.00004130      -0.00004130      -0.00001492      -5.36569503
Si       2.72350207       0.01580879       8.13849793      -0.00000506      -0.00001469       0.00000506      -5.38357932
Si       4.08827987       1.42022203       9.44177797       0.00005041       0.00000011      -0.00000011      -5.33598987
Si       1.42022203       1.42022203       6.77372013       0.00000011       0.00000011      -0.00005041      -5.33598987
Si       1.42022203       4.08827987       9.44177797       0.00000011       0.00005041      -0.00000011      -5.33598987
B        4.18099780       4.18099780       6.68100220      -0.00003717      -0.00003717       0.00003717      -6.41638568
Si       0.01783298       5.42284676      -0.01783298      -0.00002094      -0.00008395       0.00002094      -5.36434809
Si       0.00407535       8.13860734       2.72339266      -0.00005623      -0.00002668       0.00002668      -5.39040415
Si       2.72887233       8.12367833      -0.01460622       0.00001565       0.00001319      -0.00001938      -5.37421889
Si       2.75936654       5.43100209       2.76851097       0.00002386      -0.00004037       0.00003747      -5.36310583
Si       4.19291163       6.61175288       4.25024712      -0.00001492       0.00004130      -0.00004130      -5.36569503
Si       1.38057167       6.77537767       1.37235622      -0.00001319      -0.00001565       0.00001938      -5.37421889
Si       1.38057167       9.48964378       4.08662233      -0.00001319      -0.00001938       0.00001565      -5.37421889
Si       4.08140324       9.48641702       1.37558298       0.00008395       0.00002094      -0.00002094      -5.36434809
Si       0.01130649       5.42937623       5.43262377       0.00001185      -0.00005140       0.00005140      -5.37614142
Si       0.01460622       8.12367833       8.13312767       0.00001938       0.00001319      -0.00001565      -5.37421889
Si       2.75936654       8.09348903       5.43099791       0.00002386      -0.00003747       0.00004037      -5.36310583
Si       2.89249712       5.31133837       7.96950288      -0.00004130       0.00001492       0.00004130      -5.36569503
Si       4.07324791       6.74488346       9.45123903       0.00004037      -0.00002386      -0.00003747      -5.36310583
Si       1.41076097       6.74488346       6.78875209       0.00003747      -0.00002386      -0.00004037      -5.36310583
Si       1.36564266       9.50017465       9.49635734       0.00002668       0.00005623      -0.00002668      -5.39040415
Si       4.07487377       9.49294351       6.78712623       0.00005140      -0.00001185      -0.00005140      -5.37614142
Si       5.42284676       0.01783298      -0.01783298      -0.00008395      -0.00002094       0.00002094      -5.36434809
Si       5.43100209       2.75936654       2.76851097      -0.00004037       0.00002386       0.00003747      -5.36310583
Si       8.12367833       2.72887233      -0.01460622       0.00001319       0.00001565      -0.00001938      -5.37421889
Si       8.13860734       0.00407535       2.72339266      -0.00002668      -0.00005623       0.00002668      -5.39040415
Si       9.48964378       1.38057167       4.08662233      -0.00001938      -0.00001319       0.00001565      -5.37421889
Si       6.77537767       1.38057167       1.37235622      -0.00001565      -0.00001319       0.00001938      -5.37421889
Si       6.61175288       4.19291163       4.25024712       0.00004130      -0.00001492      -0.00004130      -5.36569503
Si       9.48641702       4.08140324       1.37558298       0.00002094       0.00008395      -0.00002094      -5.36434809
Si       5.42937623       0.01130649       5.43262377      -0.00005140       0.00001185       0.00005140      -5.37614142
Si       5.31133837       2.89249712       7.96950288       0.00001492      -0.00004130       0.00004130      -5.36569503
Si       8.09348903       2.75936654       5.43099791      -0.00003747       0.00002386       0.00004037      -5.36310583
Si       8.12367833       0.01460622       8.13312767       0.00001319       0.00001938      -0.00001565      -5.37421889
Si       9.50017465       1.36564266       9.49635734       0.00005623       0.00002668      -0.00002668      -5.39040415
Si       6.74488346       1.41076097       6.78875209      -0.00002386       0.00003747      -0.00004037      -5.36310583
Si       6.74488346       4.07324791       9.45123903      -0.00002386       0.00004037      -0.00003747      -5.36310583
Si       9.49294351       4.07487377       6.78712623      -0.00001185       0.00005140      -0.00005140      -5.37614142
Si       5.42937623       5.42937623      -0.01130649      -0.00005140      -0.00005140      -0.00001185      -5.37614142
Si       5.41597013       8.08402797       2.77797203      -0.00005041      -0.00000011       0.00000011      -5.33598987
Si       8.13860734       8.13860734      -0.00407535      -0.00002668      -0.00002668       0.00005623      -5.39040415
Si       8.08402797       5.41597013       2.77797203      -0.00000011      -0.00005041       0.00000011      -5.33598987
Si       9.48844121       6.78074793       4.08125207       0.00001469       0.00000506      -0.00000506      -5.38357932
Si       6.78074793       6.78074793       1.37355879       0.00000506       0.00000506      -0.00001469      -5.38357932
Si       6.78074793       9.48844121       4.08125207       0.00000506       0.00001469      -0.00000506      -5.38357932
Si       9.50201585       9.50201585       1.35998415       0.00000520       0.00000520      -0.00000520      -5.39428696
B        5.32325220       5.32325220       5.53874780       0.00003717       0.00003717      -0.00003717      -6.41638568
Si       5.43100209       8.09348903       8.10263346      -0.00004037      -0.00003747      -0.00002386      -5.36310583
Si       8.08402797       8.08402797       5.44602987      -0.00000011      -0.00000011       0.00005041      -5.33598987
Si       8.09348903       5.43100209       8.10263346      -0.00003747      -0.00004037      -0.00002386      -5.36310583
Si       9.48964378       6.77537767       9.48142833      -0.00001938      -0.00001565       0.00001319      -5.37421889
Si       6.61175288       6.61175288       6.66908837       0.00004130       0.00004130       0.00001492      -5.36569503
Si       6.77537767       9.48964378       9.48142833      -0.00001565      -0.00001938       0.00001319      -5.37421889
Si       9.48641702       9.48641702       6.78059676       0.00002094       0.00002094      -0.00008395      -5.36434809
