64
Lattice="10.862 0.0 0.0 0.0 10.862 0.0 0.0 0.0 10.862" Properties=species:S:1:pos:R:3:forces:R:3:energies:R:1 energy=-344.04349715203637 stress="-8.802216912296595e-05 -0.0008500047570976329 0.0008500047570979725 -0.0008500047570976329 -8.802216912295625e-05 0.0008500047570979659 0.0008500047570979725 0.0008500047570979659 -8.802216912299644e-05" free_energy=-344.04349715203637 pbc="T T T"
Si       0.00000000       0.00000000       0.00000000       0.00729536       0.00729536      -0.00729536      -5.38432862
Si       0.00000000       2.71550000       2.71550000      -0.00013838       0.01143655      -0.00131712      -5.37743185
Si       2.71550000       2.71550000       0.00000000      -0.00459711      -0.00459711      -0.06163473      -5.38527857
Si       2.71550000       0.00000000       2.71550000       0.01143655      -0.00013838      -0.00131712      -5.37743185
Si       4.07325000       1.35775000       4.07325000       0.02429411       0.10271078       0.03814099      -5.37501201
Si       1.35775000       1.35775000       1.35775000       0.01129562       0.01129562       0.00435699      -5.38516156
Si       1.35775000       4.07325000       4.07325000       0.10271078       0.02429411       0.03814099      -5.37501201
Si       4.07325000       4.07325000       1.35775000      -0.01809246      -0.01809246       0.08144595      -5.38038951
Si       0.00000000       0.00000000       5.43100000       0.00743540       0.00743540       0.00517737      -5.37939578
Si       0.00000000       2.71550000       8.14650000       0.06163473      -0.00459711       0.00459711      -5.38527857
Si       2.71550000       2.71550000       5.43100000       1.16080846       1.16080846       1.04245819      -5.25936677
Si       2.71550000       0.00000000       8.14650000      -0.00459711       0.06163473       0.00459711      -5.38527857
Si       4.07325000       1.35775000       9.50425000      -0.03963982       0.03456235      -0.03456235      -5.36373074
Si       1.35775000       1.35775000       6.78875000       0.03456235       0.03456235       0.03963982      -5.36373074
Si       1.35775000       4.07325000       9.50425000       0.03456235      -0.03963982      -0.03456235      -5.36373074
B        4.07325000       4.07325000       6.78875000       0.20419682       0.20419682      -0.20419682      -5.66278802
Si       0.00000000       5.43100000       0.00000000       0.00743540      -0.00517737      -0.00743540      -5.37939578
Si       0.00000000       8.14650000       2.71550000       0.00435699      -0.01129562       0.01129562      -5.38516156
Si       2.71550000       8.14650000       0.00000000       0.01143655       0.00131712       0.00013838      -5.37743185
Si       2.71550000       5.43100000       2.71550000       0.03814099      -0.02429411       0.10271078      -5.37501201
Si       4.07325000       6.78875000       4.07325000       1.04245819      -1.16080846       1.16080846      -5.25936677
Si       1.35775000       6.78875000       1.35775000      -0.00131712      -0.01143655      -0.00013838      -5.37743185
Si       1.35775000       9.50425000       4.07325000      -0.00131712       0.00013838       0.01143655      -5.37743185
Si       4.07325000       9.50425000       1.35775000       0.00517737      -0.00743540       0.00743540      -5.37939578
Si       0.00000000       5.43100000       5.43100000       0.08144595       0.01809246      -0.01809246      -5.38038951
Si       0.00000000       8.14650000       8.14650000      -0.00013838       0.00131712      -0.01143655      -5.37743185
Si       2.71550000       8.14650000       5.43100000       0.03814099      -0.10271078       0.02429411      -5.37501201
Si       2.71550000       5.43100000       8.14650000       1.16080846      -1.04245819      -1.16080846      -5.25936677
Si       4.07325000       6.78875000       9.50425000       0.02429411      -0.03814099      -0.10271078      -5.37501201
Si       1.35775000       6.78875000       6.78875000       0.10271078      -0.03814099      -0.02429411      -5.37501201
Si       1.35775000       9.50425000       9.50425000       0.01129562      -0.00435699      -0.01129562      -5.38516156
Si       4.07325000       9.50425000       6.78875000      -0.01809246      -0.08144595       0.01809246      -5.38038951
Si       5.43100000       0.00000000       0.00000000      -0.00517737       0.00743540      -0.00743540      -5.37939578
Si       5.43100000       2.71550000       2.71550000      -0.02429411       0.03814099       0.10271078      -5.37501201
Si       8.14650000       2.71550000       0.00000000       0.00131712       0.01143655       0.00013838      -5.37743185
Si       8.14650000       0.00000000       2.71550000      -0.01129562       0.00435699       0.01129562      -5.38516156
Si       9.50425000       1.35775000       4.07325000       0.00013838      -0.00131712       0.01143655      -5.37743185
Si       6.78875000       1.35775000       1.35775000      -0.01143655      -0.00131712      -0.00013838      -5.37743185
Si       6.78875000       4.07325000       4.07325000      -1.16080846       1.04245819       1.16080846      -5.25936677
Si       9.50425000       4.07325000       1.35775000      -0.00743540       0.00517737       0.00743540      -5.37939578
Si       5.43100000       0.00000000       5.43100000       0.01809246       0.08144595      -0.01809246      -5.38038951
Si       5.43100000       2.71550000       8.14650000      -1.04245819       1.16080846      -1.16080846      -5.25936677
Si       8.14650000       2.71550000       5.43100000      -0.10271078       0.03814099       0.02429411      -5.37501201
Si       8.14650000       0.00000000       8.14650000       0.00131712      -0.00013838      -0.01143655      -5.37743185
Si       9.50425000       1.35775000       9.50425000      -0.00435699       0.01129562      -0.01129562      -5.38516156
Si       6.78875000       1.35775000       6.78875000      -0.03814099       0.10271078      -0.02429411      -5.37501201
Si       6.78875000       4.07325000       9.50425000      -0.03814099       0.02429411      -0.10271078      -5.37501201
Si       9.50425000       4.07325000       6.78875000      -0.08144595      -0.01809246       0.01809246      -5.38038951
Si       5.43100000       5.43100000       0.00000000       0.01809246       0.01809246      -0.08144595      -5.38038951
Si       5.43100000       8.14650000       2.71550000       0.03963982      -0.03456235       0.03456235      -5.36373074
Si       8.14650000       8.14650000       0.00000000      -0.01129562      -0.01129562      -0.00435699      -5.38516156
Si       8.14650000       5.43100000       2.71550000      -0.03456235       0.03963982       0.03456235      -5.36373074
Si       9.50425000       6.78875000       4.07325000      -0.06163473       0.00459711      -0.00459711      -5.38527857
Si       6.78875000       6.78875000       1.35775000       0.00459711       0.00459711       0.06163473      -5.38527857
Si       6.78875000       9.50425000       4.07325000       0.00459711      -0.06163473      -0.00459711      -5.38527857
Si       9.50425000       9.50425000       1.35775000      -0.00729536      -0.00729536       0.00729536      -5.38432862
B        5.43100000       5.43100000       5.43100000      -0.20419682      -0.20419682       0.20419682      -5.66278802
Si       5.43100000       8.14650000       8.14650000      -0.02429411      -0.10271078      -0.03814099      -5.37501201
Si       8.14650000       8.14650000       5.43100000      -0.03456235      -0.03456235      -0.03963982      -5.36373074
Si       8.14650000       5.43100000       8.14650000      -0.10271078      -0.02429411      -0.03814099      -5.37501201
Si       9.50425000       6.78875000       9.50425000       0.00013838      -0.01143655       0.00131712      -5.37743185
Si       6.78875000       6.78875000       6.78875000      -1.16080846      -1.16080846      -1.04245819      -5.25936677
Si       6.78875000       9.50425000       9.50425000      -0.01143655       0.00013838       0.00131712      -5.37743185
Si       9.50425000       9.50425000       6.78875000      -0.00743540      -0.00743540      -0.00517737      -5.37939578
