64
Lattice="10.862 0.0 0.0 0.0 10.862 0.0 0.0 0.0 10.862" Properties=species:S:1:pos:R:3:forces:R:3:energies:R:1 energy=-344.4645160188728 stress="-0.005846601400022244 1.696088724925194e-16 1.6417216485762532e-16 1.696088724925194e-16 -0.005846601400022249 1.7098349683107561e-16 1.6417216485762532e-16 1.7098349683107561e-16 -0.005846601400022259" free_energy=-344.4645160188728 pbc="T T T"
Si       0.00000000       0.00000000       0.00000000       0.05093026       0.00871093      -0.00871093      -5.38351289
Si       0.00000000       2.71550000       2.71550000       0.00590475      -0.00590475      -0.00981656      -5.37573513
Si       2.71550000       2.71550000       0.00000000      -0.00871093      -0.05093026      -0.00871093      -5.38351289
Si       2.71550000       0.00000000       2.71550000       0.93252775      -0.93252775      -0.93252775      -5.29012234
Si       4.07325000       1.35775000       4.07325000       0.01985176      -0.05255372      -0.05255372      -5.37071349
Si       1.35775000       1.35775000       1.35775000       0.05255372      -0.05255372      -0.01985176      -5.37071349
Si       1.35775000       4.07325000       4.07325000       0.00083378       0.00365359      -0.00083378      -5.38160071
Si       4.07325000       4.07325000       1.35775000       0.00000000      -0.00000000       0.00000000      -5.37773377
Si       0.00000000       0.00000000       5.43100000       0.00590475      -0.00981656      -0.00590475      -5.37573513
Si       0.00000000       2.71550000       8.14650000       0.00625802      -0.00625802       0.00625802      -5.38432070
Si       2.71550000       2.71550000       5.43100000       0.00981656      -0.00590475      -0.00590475      -5.37573513
Si       2.71550000       0.00000000       8.14650000      -0.00871093       0.00871093       0.05093026      -5.38351289
Si       4.07325000       1.35775000       9.50425000      -0.01985176      -0.05255372       0.05255372      -5.37071349
Si       1.35775000       1.35775000       6.78875000       0.00083378      -0.00083378       0.00365359      -5.38160071
Si       1.35775000       4.07325000       9.50425000       0.00083378      -0.00365359       0.00083378      -5.38160071
Si       4.07325000       4.07325000       6.78875000      -0.00000000      -0.00000000      -0.00000000      -5.38390996
Si       0.00000000       5.43100000       0.00000000       0.00590475       0.00590475       0.00981656      -5.37573513
Si       0.00000000       8.14650000       2.71550000       0.05093026      -0.00871093       0.00871093      -5.38351289
Si       2.71550000       8.14650000       0.00000000       0.93252775       0.93252775       0.93252775      -5.29012234
Si       2.71550000       5.43100000       2.71550000      -0.00871093       0.05093026       0.00871093      -5.38351289
Si       4.07325000       6.78875000       4.07325000      -0.01985176       0.05255372      -0.05255372      -5.37071349
Si       1.35775000       6.78875000       1.35775000       0.05255372       0.05255372       0.01985176      -5.37071349
Si       1.35775000       9.50425000       4.07325000       0.05255372      -0.01985176      -0.05255372      -5.37071349
B        4.07325000       9.50425000       1.35775000      -0.00000000      -0.00000000      -0.00000000      -5.96202644
Si       0.00000000       5.43100000       5.43100000       0.00625802       0.00625802      -0.00625802      -5.38432070
Si       0.00000000       8.14650000       8.14650000       0.00590475       0.00981656       0.00590475      -5.37573513
Si       2.71550000       8.14650000       5.43100000      -0.00871093      -0.00871093      -0.05093026      -5.38351289
Si       2.71550000       5.43100000       8.14650000       0.00981656       0.00590475       0.00590475      -5.37573513
Si       4.07325000       6.78875000       9.50425000       0.01985176       0.05255372       0.05255372      -5.37071349
Si       1.35775000       6.78875000       6.78875000       0.00083378       0.00083378      -0.00365359      -5.38160071
Si       1.35775000       9.50425000       9.50425000       0.05255372       0.01985176       0.05255372      -5.37071349
Si       4.07325000       9.50425000       6.78875000      -0.00000000      -0.00000000      -0.00000000      -5.37773377
Si       5.43100000       0.00000000       0.00000000      -0.93252775      -0.93252775       0.93252775      -5.29012234
Si       5.43100000       2.71550000       2.71550000       0.00871093      -0.05093026       0.00871093      -5.38351289
Si       8.14650000       2.71550000       0.00000000      -0.00590475      -0.00590475       0.00981656      -5.37573513
Si       8.14650000       0.00000000       2.71550000      -0.05093026       0.00871093       0.00871093      -5.38351289
Si       9.50425000       1.35775000       4.07325000      -0.00365359      -0.00083378      -0.00083378      -5.38160071
Si       6.78875000       1.35775000       1.35775000      -0.05255372      -0.05255372       0.01985176      -5.37071349
Si       6.78875000       4.07325000       4.07325000      -0.00083378      -0.00365359      -0.00083378      -5.38160071
Si       9.50425000       4.07325000       1.35775000      -0.00000000      -0.00000000      -0.00000000      -5.38390996
Si       5.43100000       0.00000000       5.43100000       0.00871093       0.00871093      -0.05093026      -5.38351289
Si       5.43100000       2.71550000       8.14650000      -0.00981656      -0.00590475       0.00590475      -5.37573513
Si       8.14650000       2.71550000       5.43100000      -0.00625802      -0.00625802      -0.00625802      -5.38432070
Si       8.14650000       0.00000000       8.14650000      -0.00590475      -0.00981656       0.00590475      -5.37573513
Si       9.50425000       1.35775000       9.50425000       0.00365359      -0.00083378       0.00083378      -5.38160071
Si       6.78875000       1.35775000       6.78875000      -0.00083378      -0.00083378      -0.00365359      -5.38160071
Si       6.78875000       4.07325000       9.50425000      -0.00083378       0.00365359       0.00083378      -5.38160071
Si       9.50425000       4.07325000       6.78875000      -0.00000000      -0.00000000      -0.00000000      -5.38103949
Si       5.43100000       5.43100000       0.00000000       0.00871093       0.05093026      -0.00871093      -5.38351289
Si       5.43100000       8.14650000       2.71550000      -0.93252775       0.93252775      -0.93252775      -5.29012234
Si       8.14650000       8.14650000       0.00000000      -0.05093026      -0.00871093      -0.00871093      -5.38351289
Si       8.14650000       5.43100000       2.71550000      -0.00590475       0.00590475      -0.00981656      -5.37573513
Si       9.50425000       6.78875000       4.07325000       0.00365359       0.00083378      -0.00083378      -5.38160071
Si       6.78875000       6.78875000       1.35775000      -0.05255372       0.05255372      -0.01985176      -5.37071349
Si       6.78875000       9.50425000       4.07325000      -0.05255372       0.01985176      -0.05255372      -5.37071349
Si       9.50425000       9.50425000       1.35775000      -0.00000000      -0.00000000      -0.00000000      -5.37773377
Si       5.43100000       5.43100000       5.43100000      -0.00981656       0.00590475      -0.00590475      -5.37573513
Si       5.43100000       8.14650000       8.14650000       0.00871093      -0.00871093       0.05093026      -5.38351289
Si       8.14650000       8.14650000       5.43100000      -0.00590475       0.00981656      -0.00590475      -5.37573513
Si       8.14650000       5.43100000       8.14650000      -0.00625802       0.00625802       0.00625802      -5.38432070
Si       9.50425000       6.78875000       9.50425000      -0.00365359       0.00083378       0.00083378      -5.38160071
Si       6.78875000       6.78875000       6.78875000      -0.00083378       0.00083378       0.00365359      -5.38160071
Si       6.78875000       9.50425000       9.50425000      -0.05255372      -0.01985176       0.05255372      -5.37071349
Si       9.50425000       9.50425000       6.78875000      -0.00000000      -0.00000000      -0.00000000      -5.38390996
