64
Lattice="10.862 0.0 0.0 0.0 10.862 0.0 0.0 0.0 10.862" Properties=species:S:1:pos:R:3:forces:R:3:energies:R:1 energy=-345.2384485354247 stress="-0.004645012999304777 7.982436467079543e-17 -1.8134871776805524e-17 7.982436467079543e-17 -0.004645012999304759 -1.1355716815737444e-16 -1.8134871776805524e-17 -1.1355716815737444e-16 -0.004645012999304769" free_energy=-345.2384485354247 pbc="T T T"
Si       0.00993146      -0.00172801       0.00172801       0.00000404      -0.00000810       0.00000810      -5.38349056
Si       0.01845463       2.69704537       2.70614769      -0.00000204       0.00000204       0.00001847      -5.37181970
Si       2.71722801       2.70556854       0.00172801       0.00000810      -0.00000404       0.00000810      -5.38349056
Si       2.84663955      -0.13113955       2.58436045      -0.00001524       0.00001524       0.00001524      -5.40689327
Si       4.07149874       1.31364097       4.02914097       0.00005469      -0.00001254      -0.00001254      -5.35140560
Si       1.40185903       1.31364097       1.35950126       0.00001254      -0.00001254      -0.00005469      -5.35140560
Si       1.36282234       4.06991992       4.06817766      -0.00002467      -0.00003427       0.00002467      -5.38477048
Si       4.07325000       4.07325000       1.35775000       0.00000000      -0.00000000      -0.00000000      -5.37175393
Si       0.01845463      -0.00935231       5.41254537      -0.00000204       0.00001847       0.00000204      -5.37181970
Si       0.00214484       2.71335516       8.14864484       0.00000719      -0.00000719       0.00000719      -5.38700582
Si       2.72485231       2.69704537       5.41254537      -0.00001847       0.00000204       0.00000204      -5.37181970
Si       2.71722801      -0.00172801       8.15643146       0.00000810      -0.00000810       0.00000404      -5.38349056
Si       4.07500126       1.31364097       9.54835903      -0.00005469      -0.00001254       0.00001254      -5.35140560
Si       1.36282234       1.35267766       6.78541992      -0.00002467       0.00002467      -0.00003427      -5.38477048
Si       1.36282234       4.07658008       9.50932234      -0.00002467       0.00003427      -0.00002467      -5.38477048
Si       4.07325000       4.07325000       6.78875000       0.00000000       0.00000000      -0.00000000      -5.37540703
Si       0.01845463       5.44945463       0.00935231      -0.00000204      -0.00000204      -0.00001847      -5.37181970
Si       0.00993146       8.14822801       2.71377199       0.00000404       0.00000810      -0.00000810      -5.38349056
Si       2.84663955       8.27763955       0.13113955      -0.00001524      -0.00001524      -0.00001524      -5.40689327
Si       2.71722801       5.44093146       2.71377199       0.00000810       0.00000404      -0.00000810      -5.38349056
Si       4.07500126       6.83285903       4.02914097      -0.00005469       0.00001254      -0.00001254      -5.35140560
Si       1.40185903       6.83285903       1.35599874       0.00001254       0.00001254       0.00005469      -5.35140560
Si       1.40185903       9.50600126       4.02914097       0.00001254      -0.00005469      -0.00001254      -5.35140560
B        4.07325000       9.50425000       1.35775000       0.00000000       0.00000000      -0.00000000      -6.53494227
Si       0.00214484       5.43314484       5.42885516       0.00000719       0.00000719      -0.00000719      -5.38700582
Si       0.01845463       8.15585231       8.16495463      -0.00000204      -0.00001847      -0.00000204      -5.37181970
Si       2.71722801       8.14822801       5.42106854       0.00000810       0.00000810      -0.00000404      -5.38349056
Si       2.72485231       5.44945463       8.16495463      -0.00001847      -0.00000204      -0.00000204      -5.37181970
Si       4.07149874       6.83285903       9.54835903       0.00005469       0.00001254       0.00001254      -5.35140560
Si       1.36282234       6.79382234       6.79208008      -0.00002467      -0.00002467       0.00003427      -5.38477048
Si       1.40185903       9.50249874       9.54835903       0.00001254       0.00005469       0.00001254      -5.35140560
Si       4.07325000       9.50425000       6.78875000       0.00000000       0.00000000       0.00000000      -5.37175393
Si       5.29986045      -0.13113955       0.13113955       0.00001524       0.00001524      -0.00001524      -5.40689327
Si       5.42927199       2.70556854       2.71377199      -0.00000810      -0.00000404      -0.00000810      -5.38349056
Si       8.12804537       2.69704537       0.00935231       0.00000204       0.00000204      -0.00001847      -5.37181970
Si       8.13656854      -0.00172801       2.71377199      -0.00000404      -0.00000810      -0.00000810      -5.38349056
Si       9.50758008       1.35267766       4.06817766       0.00003427       0.00002467       0.00002467      -5.38477048
Si       6.74464097       1.31364097       1.35599874      -0.00001254      -0.00001254       0.00005469      -5.35140560
Si       6.78367766       4.07658008       4.06817766       0.00002467       0.00003427       0.00002467      -5.38477048
Si       9.50425000       4.07325000       1.35775000       0.00000000      -0.00000000       0.00000000      -5.37540703
Si       5.42927199      -0.00172801       5.42106854      -0.00000810      -0.00000810      -0.00000404      -5.38349056
Si       5.42164769       2.69704537       8.16495463       0.00001847       0.00000204      -0.00000204      -5.37181970
Si       8.14435516       2.71335516       5.42885516      -0.00000719      -0.00000719      -0.00000719      -5.38700582
Si       8.12804537      -0.00935231       8.16495463       0.00000204       0.00001847      -0.00000204      -5.37181970
Si       9.50091992       1.35267766       9.50932234      -0.00003427       0.00002467      -0.00002467      -5.38477048
Si       6.78367766       1.35267766       6.79208008       0.00002467       0.00002467       0.00003427      -5.38477048
Si       6.78367766       4.06991992       9.50932234       0.00002467      -0.00003427      -0.00002467      -5.38477048
Si       9.50425000       4.07325000       6.78875000       0.00000000      -0.00000000       0.00000000      -5.38859097
Si       5.42927199       5.44093146       0.00172801      -0.00000810       0.00000404       0.00000810      -5.38349056
Si       5.29986045       8.27763955       2.58436045       0.00001524      -0.00001524       0.00001524      -5.40689327
Si       8.13656854       8.14822801       0.00172801      -0.00000404       0.00000810       0.00000810      -5.38349056
Si       8.12804537       5.44945463       2.70614769       0.00000204      -0.00000204       0.00001847      -5.37181970
Si       9.50091992       6.79382234       4.06817766      -0.00003427      -0.00002467       0.00002467      -5.38477048
Si       6.74464097       6.83285903       1.35950126      -0.00001254       0.00001254      -0.00005469      -5.35140560
Si       6.74464097       9.50249874       4.02914097      -0.00001254       0.00005469      -0.00001254      -5.35140560
Si       9.50425000       9.50425000       1.35775000      -0.00000000       0.00000000       0.00000000      -5.37175393
Si       5.42164769       5.44945463       5.41254537       0.00001847      -0.00000204       0.00000204      -5.37181970
Si       5.42927199       8.14822801       8.15643146      -0.00000810       0.00000810       0.00000404      -5.38349056
Si       8.12804537       8.15585231       5.41254537       0.00000204      -0.00001847       0.00000204      -5.37181970
Si       8.14435516       5.43314484       8.14864484      -0.00000719       0.00000719       0.00000719      -5.38700582
Si       9.50758008       6.79382234       9.50932234       0.00003427      -0.00002467      -0.00002467      -5.38477048
Si       6.78367766       6.79382234       6.78541992       0.00002467      -0.00002467      -0.00003427      -5.38477048
Si       6.74464097       9.50600126       9.54835903      -0.00001254      -0.00005469       0.00001254      -5.35140560
Si       9.50425000       9.50425000       6.78875000       0.00000000      -0.00000000       0.00000000      -5.37540703
