65
Lattice="10.862 0.0 0.0 0.0 10.862 0.0 0.0 0.0 10.862" Properties=species:S:1:pos:R:3:forces:R:3:energies:R:1 energy=-343.5978611392491 stress="-0.045250726948245404 2.023487650354815e-16 2.094404640726032e-16 2.023487650354815e-16 -0.013989291287092837 -0.0003846775674414625 2.094404640726032e-16 -0.0003846775674414625 -0.013989291287092821" free_energy=-343.5978611392491 pbc="T T T"
Si       0.00000000       0.00000000       0.00000000       0.05749553       0.04281204      -0.04281204      -5.38608290
Si       0.00000000       2.71550000       2.71550000      -0.01355053      -0.00000000       0.00000000      -5.38211939
Si       2.71550000       2.71550000       0.00000000       0.00017260      -0.00222156      -0.02747422      -5.37990475
Si       2.71550000       0.00000000       2.71550000       0.19669324       0.30105705       0.02553422      -5.33613078
Si       4.07325000       1.35775000       4.07325000      -0.01535248      -0.02825905       0.01645838      -5.37464726
Si       1.35775000       1.35775000       1.35775000       0.01747340      -0.05514010      -0.00244368      -5.37132160
Si       1.35775000       4.07325000       4.07325000       0.01747340       0.05514010       0.00244368      -5.37132160
Si       4.07325000       4.07325000       1.35775000      -0.01535248       0.02825905      -0.01645838      -5.37464726
Si       0.00000000       0.00000000       5.43100000      -0.24020485      -0.05782546      -0.05782546      -5.35561290
Si       0.00000000       2.71550000       8.14650000      -0.03153491      -0.00000000       0.00000000      -5.38561552
Si       2.71550000       2.71550000       5.43100000       0.00017260       0.00222156       0.02747422      -5.37990475
Si       2.71550000       0.00000000       8.14650000       0.00017260       0.02747422       0.00222156      -5.37990475
Si       4.07325000       1.35775000       9.50425000      -0.00036455       0.00795537      -0.00795537      -5.38221117
Si       1.35775000       1.35775000       6.78875000       0.04124756      -0.01231476      -0.01231476      -5.38502867
Si       1.35775000       4.07325000       9.50425000       0.04124756       0.01231476       0.01231476      -5.38502867
Si       4.07325000       4.07325000       6.78875000      -0.00036455      -0.00795537       0.00795537      -5.38221117
Si       0.00000000       5.43100000       0.00000000      -0.24020485       0.05782546       0.05782546      -5.35561290
Si       0.00000000       8.14650000       2.71550000     -30.14458465       0.00000000      -0.00000000      -2.93425667
Si       2.71550000       8.14650000       0.00000000       0.19669324      -0.02553422      -0.30105705      -5.33613078
Si       2.71550000       5.43100000       2.71550000       0.19669324      -0.30105705      -0.02553422      -5.33613078
Si       4.07325000       6.78875000       4.07325000       0.02075878       0.03165634      -0.03165634      -5.37361417
Si       1.35775000       6.78875000       1.35775000       0.44133518      -0.23455954      -0.23455954      -5.25486171
Si       1.35775000       9.50425000       4.07325000       0.44133518       0.23455954       0.23455954      -5.25486171
Si       4.07325000       9.50425000       1.35775000       0.02075878      -0.03165634       0.03165634      -5.37361417
Si       0.00000000       5.43100000       5.43100000       0.05749553      -0.04281204       0.04281204      -5.38608290
Si       0.00000000       8.14650000       8.14650000      -0.01355053       0.00000000       0.00000000      -5.38211939
Si       2.71550000       8.14650000       5.43100000       0.19669324       0.02553422       0.30105705      -5.33613078
Si       2.71550000       5.43100000       8.14650000       0.00017260      -0.02747422      -0.00222156      -5.37990475
Si       4.07325000       6.78875000       9.50425000      -0.01535248      -0.01645838       0.02825905      -5.37464726
Si       1.35775000       6.78875000       6.78875000       0.01747340      -0.00244368      -0.05514010      -5.37132160
Si       1.35775000       9.50425000       9.50425000       0.01747340       0.00244368       0.05514010      -5.37132160
Si       4.07325000       9.50425000       6.78875000      -0.01535248       0.01645838      -0.02825905      -5.37464726
Si       5.43100000       0.00000000       0.00000000       0.01995910       0.03816762      -0.03816762      -5.37606393
Si       5.43100000       2.71550000       2.71550000       0.02609706       0.00000000       0.00000000      -5.37933949
Si       8.14650000       2.71550000       0.00000000      -0.01389029      -0.01323864      -0.00340949      -5.38718090
Si       8.14650000       0.00000000       2.71550000       0.06400085      -0.03819363       0.02542553      -5.38203101
Si       9.50425000       1.35775000       4.07325000       0.03970692      -0.02951651       0.01018466      -5.38222121
Si       6.78875000       1.35775000       1.35775000       0.00630467       0.03233373      -0.01438994      -5.38260696
Si       6.78875000       4.07325000       4.07325000       0.00630467      -0.03233373       0.01438994      -5.38260696
Si       9.50425000       4.07325000       1.35775000       0.03970692       0.02951651      -0.01018466      -5.38222121
Si       5.43100000       0.00000000       5.43100000      -0.02364406      -0.00218008      -0.00218008      -5.37912481
Si       5.43100000       2.71550000       8.14650000      -0.00683259       0.00000000       0.00000000      -5.38240158
Si       8.14650000       2.71550000       5.43100000      -0.01389029       0.01323864       0.00340949      -5.38718090
Si       8.14650000       0.00000000       8.14650000      -0.01389029       0.00340949       0.01323864      -5.38718090
Si       9.50425000       1.35775000       9.50425000      -0.02726211       0.01214552      -0.01214552      -5.38390390
Si       6.78875000       1.35775000       6.78875000      -0.00136263       0.00028300       0.00028300      -5.38501421
Si       6.78875000       4.07325000       9.50425000      -0.00136263      -0.00028300      -0.00028300      -5.38501421
Si       9.50425000       4.07325000       6.78875000      -0.02726211      -0.01214552       0.01214552      -5.38390390
Si       5.43100000       5.43100000       0.00000000      -0.02364406       0.00218008       0.00218008      -5.37912481
Si       5.43100000       8.14650000       2.71550000      -0.14710400       0.00000000       0.00000000      -5.36777451
Si       8.14650000       8.14650000       0.00000000       0.06400085      -0.02542553       0.03819363      -5.38203101
Si       8.14650000       5.43100000       2.71550000       0.06400085       0.03819363      -0.02542553      -5.38203101
Si       9.50425000       6.78875000       4.07325000      -0.00743661       0.11743748      -0.11743748      -5.30745570
Si       6.78875000       6.78875000       1.35775000      -0.00466008      -0.00771685      -0.00771685      -5.37951972
Si       6.78875000       9.50425000       4.07325000      -0.00466008       0.00771685       0.00771685      -5.37951972
Si       9.50425000       9.50425000       1.35775000      -0.00743661      -0.11743748       0.11743748      -5.30745570
Si       5.43100000       5.43100000       5.43100000       0.01995910      -0.03816762       0.03816762      -5.37606393
Si       5.43100000       8.14650000       8.14650000       0.02609706       0.00000000       0.00000000      -5.37933949
Si       8.14650000       8.14650000       5.43100000       0.06400085       0.02542553      -0.03819363      -5.38203101
Si       8.14650000       5.43100000       8.14650000      -0.01389029      -0.00340949      -0.01323864      -5.38718090
Si       9.50425000       6.78875000       9.50425000       0.03970692      -0.01018466       0.02951651      -5.38222121
Si       6.78875000       6.78875000       6.78875000       0.00630467      -0.01438994       0.03233373      -5.38260696
Si       6.78875000       9.50425000       9.50425000       0.00630467       0.01438994      -0.03233373      -5.38260696
Si       9.50425000       9.50425000       6.78875000       0.03970692       0.01018466      -0.02951651      -5.38222121
B        1.35775000       8.14650000       2.71550000      28.57280491       0.00000000       0.00000000      -2.32372967
