65
Lattice="10.862 0.0 0.0 0.0 10.862 0.0 0.0 0.0 10.862" Properties=species:S:1:pos:R:3:forces:R:3:energies:R:1 energy=-349.04483258869857 stress="-0.016227836520345564 -1.739542813169757e-17 7.902549751114102e-17 -1.739542813169757e-17 -0.013693510907817064 0.0012805556310867279 7.902549751114102e-17 0.0012805556310867279 -0.013693510907817036" free_energy=-349.04483258869857 pbc="T T T"
Si       0.00489732      -0.00172223       0.00172223       0.00001914      -0.00000711       0.00000711      -5.38353049
Si       0.00589431       2.71550000       2.71550000       0.00004458       0.00000000       0.00000000      -5.38544470
Si       2.71005996       2.71692298      -0.00402790       0.00003128      -0.00000712      -0.00001769      -5.37733280
Si       2.76077594       0.03698889       2.70364553       0.00001625       0.00001466       0.00001553      -5.33178766
Si       4.08449481       1.36992187       4.08188009      -0.00003305      -0.00001427      -0.00000411      -5.37245267
Si       1.36344797       1.35428372       1.36053081      -0.00002074      -0.00001227       0.00001934      -5.37537530
Si       1.36344797       4.07671628       4.07046919      -0.00002074       0.00001227      -0.00001934      -5.37537530
Si       4.08449481       4.06107813       1.34911991      -0.00003305       0.00001427       0.00000411      -5.37245267
Si       0.00187214      -0.03279160       5.39820840      -0.00001291      -0.00000537      -0.00000537      -5.34004626
Si       0.00461798       2.71550000       8.14650000      -0.00002779      -0.00000000      -0.00000000      -5.38520444
Si       2.71005996       2.71407702       5.43502790       0.00003128       0.00000712       0.00001769      -5.37733280
Si       2.71005996       0.00402790       8.14507702       0.00003128       0.00001769       0.00000712      -5.37733280
Si       4.06918190       1.36601913       9.49598087      -0.00000867      -0.00000723       0.00000723      -5.37959532
Si       1.34642072       1.34422212       6.77522212      -0.00003368       0.00001834       0.00001834      -5.37880313
Si       1.34642072       4.08677788       9.51777788      -0.00003368      -0.00001834      -0.00001834      -5.37880313
Si       4.06918190       4.06498087       6.79701913      -0.00000867       0.00000723      -0.00000723      -5.37959532
Si       0.00187214       5.46379160       0.03279160      -0.00001291       0.00000537       0.00000537      -5.34004626
Si      -0.36192386       8.14650000       2.71550000      -0.00002561       0.00000000       0.00000000      -5.09747901
Si       2.76077594       8.15835447      -0.03698889       0.00001625      -0.00001553      -0.00001466      -5.33178766
Si       2.76077594       5.39401111       2.72735447       0.00001625      -0.00001466      -0.00001553      -5.33178766
Si       4.09878136       6.77296547       4.08903453      -0.00001665      -0.00001780       0.00001780      -5.37223162
Si       1.46517064       6.79199116       1.36099116      -0.00000407      -0.00001921      -0.00001921      -5.29395210
Si       1.46517064       9.50100884       4.07000884      -0.00000407       0.00001921       0.00001921      -5.29395210
Si       4.09878136       9.52003453       1.34196547      -0.00001665       0.00001780      -0.00001780      -5.37223162
Si       0.00489732       5.43272223       5.42927777       0.00001914       0.00000711      -0.00000711      -5.38353049
Si       0.00589431       8.14650000       8.14650000       0.00004458       0.00000000       0.00000000      -5.38544470
Si       2.76077594       8.13464553       5.46798889       0.00001625       0.00001553       0.00001466      -5.33178766
Si       2.71005996       5.42697210       8.14792298       0.00003128      -0.00001769      -0.00000712      -5.37733280
Si       4.08449481       6.78011991       9.49207813      -0.00003305       0.00000411       0.00001427      -5.37245267
Si       1.36344797       6.79153081       6.78528372      -0.00002074       0.00001934      -0.00001227      -5.37537530
Si       1.36344797       9.50146919       9.50771628      -0.00002074      -0.00001934       0.00001227      -5.37537530
Si       4.08449481       9.51288009       6.80092187      -0.00003305      -0.00000411      -0.00001427      -5.37245267
Si       5.44436200       0.01885817      -0.01885817       0.00003810       0.00000915      -0.00000915      -5.36979825
Si       5.43405419       2.71550000       2.71550000       0.00003327       0.00000000      -0.00000000      -5.37915834
Si       8.15797837       2.72512871      -0.00255624       0.00002739       0.00000666      -0.00002130      -5.38243202
Si       8.11463927       0.02341244       2.71368500       0.00002951      -0.00001249       0.00000933      -5.38097319
Si       9.50928111       1.34790698       4.06312099      -0.00000918       0.00001202       0.00001044      -5.37717262
Si       6.78646960       1.37866517       1.34758114      -0.00001693       0.00001138       0.00000637      -5.38025406
Si       6.78646960       4.05233483       4.08341886      -0.00001693      -0.00001138      -0.00000637      -5.38025406
Si       9.50928111       4.08309302       1.36787901      -0.00000918      -0.00001202      -0.00001044      -5.37717262
Si       5.42934919       0.00175478       5.43275478       0.00001274       0.00000488       0.00000488      -5.37509605
Si       5.43551540       2.71550000       8.14650000      -0.00000167       0.00000000       0.00000000      -5.37988452
Si       8.15797837       2.70587129       5.43355624       0.00002739      -0.00000666       0.00002130      -5.38243202
Si       8.15797837       0.00255624       8.13687129       0.00002739       0.00002130      -0.00000666      -5.38243202
Si       9.51197945       1.35967997       9.50232003      -0.00003149       0.00000622      -0.00000622      -5.38451092
Si       6.79284755       1.35706188       6.78806188      -0.00003185       0.00001674       0.00001674      -5.38337338
Si       6.79284755       4.07393812       9.50493812      -0.00003185      -0.00001674      -0.00001674      -5.38337338
Si       9.51197945       4.07132003       6.79067997      -0.00003149      -0.00000622       0.00000622      -5.38451092
Si       5.42934919       5.42924522      -0.00175478       0.00001274      -0.00000488      -0.00000488      -5.37509605
Si       5.42342510       8.14650000       2.71550000      -0.00002268      -0.00000000       0.00000000      -5.35227455
Si       8.11463927       8.14831500      -0.02341244       0.00002951      -0.00000933       0.00001249      -5.38097319
Si       8.11463927       5.40758756       2.71731500       0.00002951       0.00001249      -0.00000933      -5.38097319
Si       9.40342967       6.72889095       4.13310905      -0.00001256      -0.00001736       0.00001736      -5.32548353
Si       6.77530867       6.78846673       1.35746673      -0.00001260       0.00002343       0.00002343      -5.36826866
Si       6.77530867       9.50453327       4.07353327      -0.00001260      -0.00002343      -0.00002343      -5.36826866
Si       9.40342967       9.56410905       1.29789095      -0.00001256       0.00001736      -0.00001736      -5.32548353
Si       5.44436200       5.41214183       5.44985817       0.00003810      -0.00000915       0.00000915      -5.36979825
Si       5.43405419       8.14650000       8.14650000       0.00003327      -0.00000000      -0.00000000      -5.37915834
Si       8.11463927       8.14468500       5.45441244       0.00002951       0.00000933      -0.00001249      -5.38097319
Si       8.15797837       5.42844376       8.15612871       0.00002739      -0.00002130       0.00000666      -5.38243202
Si       9.50928111       6.79887901       9.51409302      -0.00000918      -0.00001044      -0.00001202      -5.37717262
Si       6.78646960       6.77858114       6.80966517      -0.00001693       0.00000637       0.00001138      -5.38025406
Si       6.78646960       9.51441886       9.48333483      -0.00001693      -0.00000637      -0.00001138      -5.38025406
Si       9.50928111       9.49412099       6.77890698      -0.00000918       0.00001044       0.00001202      -5.37717262
B        1.47642906       8.14650000       2.71550000       0.00001299      -0.00000000      -0.00000000      -5.68028326
