360
Lattice="11.605727294873521 0.0 0.0 0.0 16.412976941613742 0.0 0.0 0.0 38.6857576495784" Properties=species:S:1:pos:R:3 pbc="F F F"
Si       5.31929168       7.52261443      19.54621542
Si       5.31929168       6.15486635     -18.57907148
Si      -4.35214774      -6.15486635     -18.57907148
Si      -4.35214774      -7.52261443     -16.64478360
Si      -2.41785985       7.52261443      19.54621542
Si      -2.41785985       6.15486635     -18.57907148
Si      -0.48357197      -6.15486635     -18.57907148
Si      -0.48357197      -7.52261443     -16.64478360
Si       1.45071591       7.52261443      19.54621542
Si       1.45071591       6.15486635     -18.57907148
Si       3.38500379      -6.15486635     -18.57907148
Si       3.38500379      -7.52261443     -16.64478360
Si       5.31929168      -3.41937020      19.54621542
Si       5.31929168      -4.78711827     -18.57907148
Si      -4.35214774      -0.68387404     -18.57907148
Si      -4.35214774      -2.05162212     -16.64478360
Si      -2.41785985      -3.41937020      19.54621542
Si      -2.41785985      -4.78711827     -18.57907148
Si      -0.48357197      -0.68387404     -18.57907148
Si      -0.48357197      -2.05162212     -16.64478360
Si       1.45071591      -3.41937020      19.54621542
Si       1.45071591      -4.78711827     -18.57907148
Si       3.38500379      -0.68387404     -18.57907148
Si       3.38500379      -2.05162212     -16.64478360
Si       5.31929168       2.05162212      19.54621542
Si       5.31929168       0.68387404     -18.57907148
Si      -4.35214774       4.78711827     -18.57907148
Si      -4.35214774       3.41937020     -16.64478360
Si      -2.41785985       2.05162212      19.54621542
Si      -2.41785985       0.68387404     -18.57907148
Si      -0.48357197       4.78711827     -18.57907148
Si      -0.48357197       3.41937020     -16.64478360
Si       1.45071591       2.05162212      19.54621542
Si       1.45071591       0.68387404     -18.57907148
Si       3.38500379       4.78711827     -18.57907148
Si       3.38500379       3.41937020     -16.64478360
Si       5.31929168       7.52261443     -16.64478360
Si       5.31929168       6.15486635     -14.71049572
Si      -4.35214774      -6.15486635     -14.71049572
Si      -4.35214774      -7.52261443     -12.77620783
Si      -2.41785985       7.52261443     -16.64478360
Si      -2.41785985       6.15486635     -14.71049572
Si      -0.48357197      -6.15486635     -14.71049572
Si      -0.48357197      -7.52261443     -12.77620783
Si       1.45071591       7.52261443     -16.64478360
Si       1.45071591       6.15486635     -14.71049572
Si       3.38500379      -6.15486635     -14.71049572
Si       3.38500379      -7.52261443     -12.77620783
Si       5.31929168      -3.41937020     -16.64478360
Si       5.31929168      -4.78711827     -14.71049572
Si      -4.35214774      -0.68387404     -14.71049572
Si      -4.35214774      -2.05162212     -12.77620783
Si      -2.41785985      -3.41937020     -16.64478360
Si      -2.41785985      -4.78711827     -14.71049572
Si      -0.48357197      -0.68387404     -14.71049572
Si      -0.48357197      -2.05162212     -12.77620783
Si       1.45071591      -3.41937020     -16.64478360
Si       1.45071591      -4.78711827     -14.71049572
Si       3.38500379      -0.68387404     -14.71049572
Si       3.38500379      -2.05162212     -12.77620783
Si       5.31929168       2.05162212     -16.64478360
Si       5.31929168       0.68387404     -14.71049572
Si      -4.35214774       4.78711827     -14.71049572
Si      -4.35214774       3.41937020     -12.77620783
Si      -2.41785985       2.05162212     -16.64478360
Si      -2.41785985       0.68387404     -14.71049572
Si      -0.48357197       4.78711827     -14.71049572
Si      -0.48357197       3.41937020     -12.77620783
Si       1.45071591       2.05162212     -16.64478360
Si       1.45071591       0.68387404     -14.71049572
Si       3.38500379       4.78711827     -14.71049572
Si       3.38500379       3.41937020     -12.77620783
Si       5.31929168       7.52261443     -12.77620783
Si       3.46028131       7.17547695     -11.49764955
Si      -2.49313736      -7.17547695     -11.49764954
Si      -1.83680196      -8.13956531      -9.35395426
Si      -2.41785985       7.52261443     -12.77620783
Si      -2.60688853       6.17526268     -10.90372003
Si       0.05469226      -5.99888950     -11.07802312
Si       0.35650806      -7.24338001      -9.14786668
Si       1.45071591       7.52261443     -12.77620783
Si       0.91245168       5.99888950     -11.07802312
Si       3.57403247      -6.17526268     -10.90372003
Si       2.74001786      -7.66690825      -9.23721260
Si       5.31929168      -3.41937020     -12.77620783
Si       5.46069987      -4.76744013     -10.84701906
Si      -4.36509000      -0.80122230     -10.85766736
Si      -4.25077370      -2.35241004      -9.12604091
Si      -2.41785985      -3.41937020     -12.77620783
Si      -2.02624312      -4.90924920     -11.02105588
Si      -0.47702247      -0.66955944     -10.91579359
Si      -0.41117160      -2.09290297      -9.07301354
Si       1.45071591      -3.41937020     -12.77620783
Si       1.85788357      -4.62501351     -10.89332509
Si       3.44781054      -0.57602187     -10.94462184
Si       3.59370137      -1.88078764      -9.02518157
Si       5.31929168       2.05162212     -12.77620783
Si       5.33223394       0.80122230     -10.85766736
Si      -4.49355593       4.76744013     -10.84701906
Si      -4.38430814       3.43701708      -8.92979595
Si      -2.41785985       2.05162212     -12.77620783
Si      -2.48066660       0.57602187     -10.94462184
Si      -0.89073963       4.62501351     -10.89332510
Si      -0.70197899       3.20319184      -9.07307492
Si       1.45071591       2.05162212     -12.77620783
Si       1.44416641       0.66955944     -10.91579359
Si       2.99338706       4.90924920     -11.02105588
Si       3.21086943       3.59660771      -9.10431731
Si       2.80394590       8.13956531      -9.35395426
Si       3.91094131       7.16875929      -7.48679291
Si      -2.94379737      -7.16875929      -7.48679291
Si      -1.91048154      -8.17718681      -5.61517969
Si      -1.77287392       7.66690825      -9.23721260
Si      -2.33505527       6.63030624      -7.21457633
Si       0.27573801      -5.95700199      -7.19713010
Si       0.32378923      -7.44826261      -5.38519499
Si       0.61063588       7.24338001      -9.14786668
Si       0.69140593       5.95700199      -7.19713010
Si       3.30219921      -6.63030624      -7.21457633
Si       2.63378937      -7.99191261      -5.42750137
Si       5.35145208      -3.43701708      -8.92979595
Si       4.52795704      -4.61188009      -7.05985567
Si      -4.33617670      -1.06391342      -7.21446726
Si      -4.25799871      -2.56971459      -5.45658665
Si      -2.24372549      -3.59660771      -9.10431731
Si      -1.90952994      -5.07440518      -7.32198355
Si      -0.47706537      -0.68684150      -7.21600740
Si      -0.38773913      -2.16300360      -5.42259461
Si       1.66912293      -3.20319184      -9.07307492
Si       2.10996751      -4.46915243      -7.17665439
Si       3.52133845      -0.46923233      -7.14181678
Si       3.60691643      -1.70679713      -5.13134562
Si       5.21791764       2.35241004      -9.12604091
Si       5.30332065       1.06391342      -7.21446726
Si      -3.56081310       4.61188009      -7.05985568
Si      -4.15368871       3.52947279      -5.05178250
Si      -2.62655743       1.88078764      -9.02518157
Si      -2.55419450       0.46923233      -7.14181678
Si      -1.14282357       4.46915243      -7.17665439
Si      -0.76336035       3.11456258      -5.32771676
Si       1.37831555       2.09290297      -9.07301354
Si       1.44420931       0.68684150      -7.21600740
Si       2.87667388       5.07440518      -7.32198355
Si       3.16137805       3.67755808      -5.47130493
Si       2.87762548       8.17718681      -5.61517969
Si       3.11373445       7.22233725      -3.44435748
Si      -2.14659051      -7.22233725      -3.44435748
Si      -3.43421760      -5.57946555      -1.98987154
Si      -1.66664543       7.99191261      -5.42750137
Si      -1.97110137       6.84220524      -3.38977918
Si       0.22804432      -6.40763233      -3.23816741
Si      -1.67813075      -5.61609064      -0.22199146
Si       0.64335471       7.44826261      -5.38519499
Si       0.73909962       6.40763233      -3.23816741
Si       2.93824531      -6.84220524      -3.38977918
Si       0.50122239      -6.28030939      -0.81108264
Si       5.12083266      -3.52947279      -5.05178250
Si       4.29062086      -4.80918334      -3.23938541
Si      -4.29790958      -1.43300003      -3.45824646
Si      -4.10744719      -3.20589431      -1.94536738
Si      -2.19423411      -3.67755808      -5.47130493
Si      -1.67462691      -4.84804592      -3.50078187
Si      -0.35900477      -0.81690732      -3.53883697
Si       0.52733386      -1.82751202      -1.58812703
Si       1.73050429      -3.11456258      -5.32771676
Si       1.91545464      -4.66000625      -3.58817814
Si       3.47990242      -0.12858790      -3.34832677
Si       2.98749536      -1.27848149      -1.37036765
Si       5.22514265       2.56971459      -5.45658665
Si       5.26505352       1.43300003      -3.45824646
Si      -3.32347692       4.80918334      -3.23938541
Si      -2.66127016       3.55391393      -1.26567537
Si      -2.63977249       1.70679713      -5.13134562
Si      -2.51275848       0.12858790      -3.34832677
Si      -0.94831070       4.66000625      -3.58817814
Si      -0.34364425       4.09840052      -1.41230866
Si       1.35488307       2.16300360      -5.42259461
Si       1.32614871       0.81690732      -3.53883697
Si       2.64177085       4.84804592      -3.50078187
Si       2.63673854       3.58045638      -1.44156722
Si       4.40136154       5.57946555      -1.98987154
Si       4.39654230       5.98998099       1.42598426
Si      -3.42939836      -5.98998099       1.42598427
Si      -2.49652131      -7.10628199       3.27149693
Si       0.46592155       6.28030939      -0.81108264
Si      -0.68676634       5.87286695       1.29108060
Si      -0.58312555      -4.59916253       1.73757037
Si      -0.42602951      -6.05512356       3.60390880
Si       2.64527468       5.61609063      -0.22199146
Si       1.55026949       4.59916253       1.73757037
Si       1.65391028      -5.87286695       1.29108060
Si       1.72144874      -6.97853876       3.38394864
Si       3.62841409      -3.55391393      -1.26567537
Si       2.96336086      -3.92697842       0.98181709
Si      -3.20167242      -2.38542814       0.04215826
Si      -4.56995373      -0.76364910       4.02091531
Si      -1.66959460      -3.58045638      -1.44156722
Si      -2.87249047      -3.74922192       1.89236569
Si      -0.23001758      -0.90838227       0.41925524
Si      -1.10202903      -0.69054771       3.82798792
Si       1.31078819      -4.09840052      -1.41230866
Si       0.88403443      -2.77493593       1.35147440
Si       3.42312643       0.19962962       0.45431839
Si       3.93523967      -0.40396001       2.68175877
Si       5.07459113       3.20589431      -1.94536738
Si       4.16881636       2.38542814       0.04215826
Si      -1.99621692       3.92697842       0.98181709
Si      -2.48071001       2.66450028       2.94857706
Si      -2.02035142       1.27848149      -1.37036765
Si      -2.45598249      -0.19962962       0.45431839
Si       0.08310951       2.77493593       1.35147440
Si      -0.14238023       1.73200637       3.45488220
Si       0.43981008       1.82751203      -1.58812703
Si       1.19716152       0.90838227       0.41925524
Si       3.83963441       3.74922192       1.89236569
Si       3.89761304       2.42113250       3.81101593
Si       3.46366525       7.10628199       3.27149693
Si       4.57831819       6.11141545       5.07185468
Si      -3.61117424      -6.11141546       5.07185468
Si      -2.75196802      -7.17352190       6.96499287
Si      -0.75430480       6.97853876       3.38394864
Si      -1.71517138       5.44704446       4.95574930
Si      -0.56604533      -4.88614074       5.63202145
Si      -0.45813906      -6.58557575       7.38392951
Si       1.39317345       6.05512356       3.60390880
Si       1.53318927       4.88614074       5.63202145
Si       2.68231532      -5.44704446       4.95574930
Si       1.84352890      -5.72659723       7.14299836
Si       3.44785395      -2.66450028       2.94857706
Si       4.13594750      -3.53516664       5.01418896
Si      -3.82196329      -0.19712554       6.20576784
Si      -4.53402642      -1.69046015       7.93226554
Si      -2.93046910      -2.42113251       3.81101593
Si      -2.70925006      -3.98360859       5.49809213
Si      -1.43402760      -0.31532759       6.13500337
Si      -0.62046224      -1.92899109       7.83534058
Si       1.10952417      -1.73200637       3.45488220
Si       1.28225740      -3.53089583       4.99920250
Si       2.63177450      -2.07526676       6.31803609
Si       3.53425527      -2.50805417       8.52832249
Si       5.53709766       0.76364910       4.02091531
Si       4.78910723       0.19712554       6.20576783
Si      -3.16880356       3.53516664       5.01418896
Si      -4.12178213       2.13093054       6.73925602
Si      -2.96809573       0.40396002       2.68175877
Si      -1.66463056       2.07526676       6.31803609
Si      -0.31511346       3.53089583       4.99920250
Si      -0.39703070       3.49595910       7.93370543
Si       2.06917297       0.69054771       3.82798792
Si       2.40117154       0.31532759       6.13500337
Si       3.67639399       3.98360860       5.49809214
Si       3.64517999       3.11101658       7.65392960
Si       3.71911195       7.17352188       6.96499289
Si       3.43611088       5.32839614       8.41775544
Si      -2.46896693      -5.32839612       8.41775554
Si      -3.56234131      -7.26085582      11.83699661
Si      -0.87638496       5.72659723       7.14299836
Si      -2.36789069       6.13860249       8.99702279
Si      -0.47342600      -6.09207061       9.75161212
Si      -1.19593774      -7.24016739      11.74197348
Si       1.42528301       6.58557575       7.38392951
Si       1.44056991       6.09207061       9.75161212
Si       3.33503463      -6.13860249       8.99702279
Si       3.23182792      -5.84729180      11.35992338
Si       5.08892607      -2.13093054       6.73925602
Si       4.81861786      -4.32736186       9.31701030
Si      -4.39039483      -0.58430808       9.98922439
Si      -4.43952485      -2.03371209      11.83834678
Si      -2.67803606      -3.11101656       7.65392960
Si      -2.62998664      -5.40795788      10.71719802
Si      -0.49971056      -0.65897533       9.84168601
Si      -0.56800215      -2.02027337      11.79498762
Si       1.36417464      -3.49595910       7.93370543
Si       1.45000510      -4.78441056      10.03507466
Si       3.39696260      -0.69020606       9.97992696
Si       3.26150210      -2.02547565      11.86866597
Si       5.50117037       1.69046014       7.93226555
Si       5.35753878       0.58430808       9.98922439
Si      -3.85147392       4.32736186       9.31701030
Si      -3.62718847       3.92489599      11.66410838
Si      -2.56711133       2.50805418       8.52832249
Si      -2.42981867       0.69020606       9.97992696
Si      -0.48286115       4.78441057      10.03507465
Si      -0.38556535       3.36093554      11.89234559
Si       1.58760618       1.92899109       7.83534058
Si       1.46685450       0.65897533       9.84168601
Si       3.59713060       5.40795790      10.71719813
Si       3.48227014       3.37445020      11.90759987
Si       4.52948521       7.26085579      11.83699658
Si       5.31929168       6.15486635      13.74335178
Si      -4.35214774      -6.15486635      13.74335178
Si      -4.35214774      -7.52261443      15.67763966
Si      -2.26468398       5.84729180      11.35992338
Si      -2.41785985       6.15486635      13.74335178
Si      -0.48357197      -6.15486635      13.74335178
Si      -0.48357197      -7.52261443      15.67763966
Si       2.16308171       7.24016739      11.74197347
Si       1.45071591       6.15486635      13.74335178
Si       3.38500379      -6.15486635      13.74335178
Si       3.38500379      -7.52261443      15.67763966
Si       4.59433242      -3.92489599      11.66410838
Si       5.31929168      -4.78711827      13.74335178
Si      -4.35214774      -0.68387404      13.74335178
Si      -4.35214774      -2.05162212      15.67763966
Si      -2.51512621      -3.37445018      11.90759988
Si      -2.41785985      -4.78711827      13.74335178
Si      -0.48357197      -0.68387404      13.74335178
Si      -0.48357197      -2.05162212      15.67763966
Si       1.35270929      -3.36093554      11.89234559
Si       1.45071591      -4.78711827      13.74335178
Si       3.38500379      -0.68387404      13.74335178
Si       3.38500379      -2.05162212      15.67763966
Si       5.40666880       2.03371208      11.83834677
Si       5.31929168       0.68387404      13.74335178
Si      -4.35214774       4.78711827      13.74335178
Si      -4.35214774       3.41937020      15.67763966
Si      -2.29435816       2.02547565      11.86866597
Si      -2.41785985       0.68387404      13.74335178
Si      -0.48357197       4.78711827      13.74335178
Si      -0.48357197       3.41937020      15.67763966
Si       1.53514609       2.02027337      11.79498762
Si       1.45071591       0.68387404      13.74335178
Si       3.38500379       4.78711827      13.74335178
Si       3.38500379       3.41937020      15.67763966
Si       5.31929168       7.52261443      15.67763966
Si       5.31929168       6.15486635      17.61192754
Si      -4.35214774      -6.15486635      17.61192754
Si      -4.35214774      -7.52261443      19.54621542
Si      -2.41785985       7.52261443      15.67763966
Si      -2.41785985       6.15486635      17.61192754
Si      -0.48357197      -6.15486635      17.61192754
Si      -0.48357197      -7.52261443      19.54621542
Si       1.45071591       7.52261443      15.67763966
Si       1.45071591       6.15486635      17.61192754
Si       3.38500379      -6.15486635      17.61192754
Si       3.38500379      -7.52261443      19.54621542
Si       5.31929168      -3.41937020      15.67763966
Si       5.31929168      -4.78711827      17.61192754
Si      -4.35214774      -0.68387404      17.61192754
Si      -4.35214774      -2.05162212      19.54621542
Si      -2.41785985      -3.41937020      15.67763966
Si      -2.41785985      -4.78711827      17.61192754
Si      -0.48357197      -0.68387404      17.61192754
Si      -0.48357197      -2.05162212      19.54621542
Si       1.45071591      -3.41937020      15.67763966
Si       1.45071591      -4.78711827      17.61192754
Si       3.38500379      -0.68387404      17.61192754
Si       3.38500379      -2.05162212      19.54621542
Si       5.31929168       2.05162212      15.67763966
Si       5.31929168       0.68387404      17.61192754
Si      -4.35214774       4.78711827      17.61192754
Si      -4.35214774       3.41937020      19.54621542
Si      -2.41785985       2.05162212      15.67763966
Si      -2.41785985       0.68387404      17.61192754
Si      -0.48357197       4.78711827      17.61192754
Si      -0.48357197       3.41937020      19.54621542
Si       1.45071591       2.05162212      15.67763966
Si       1.45071591       0.68387404      17.61192754
Si       3.38500379       4.78711827      17.61192754
Si       3.38500379       3.41937020      19.54621542
