216
Lattice="11.605727294873521 0.0 0.0 0.0 13.401139555673227 0.0 0.0 0.0 28.428109966331448" Properties=species:S:1:pos:R:3:forces:R:3:energies:R:1 energy=-1163.6674361396997 stress="0.0010682638584713264 -3.7012607206066564e-17 1.821274319336981e-17 -3.7012607206066564e-17 0.0010733890016534622 6.495271118659449e-07 1.821274319336981e-17 6.495271118659449e-07 0.0008374996048997799" free_energy=-1163.6674361396997 pbc="T T T"
Si       0.00000000      13.40106850      20.93220741      -0.00000000       0.00006651      -0.00008312      -5.38421479
Si       0.00000000      13.40098032      23.30205380       0.00000000      -0.00001691      -0.00019224      -5.38257938
Si       0.00000000       2.23528764      24.09050379       0.00000000      -0.00006957       0.00007862      -5.38491731
Si       0.00000000       2.23436755      26.45898830      -0.00000000      -0.00000621      -0.00014596      -5.38506096
Si       0.00000000       4.47114471      27.24678104      -0.00000000      -0.00006091       0.00011521      -5.39061638
Si      11.60572729       4.46767216       1.18512640       0.00000000      -0.00014401      -0.00006360      -5.39131622
Si       1.93747219       1.11569140      27.24349859       0.00003341      -0.00001193       0.00012893      -5.38843396
Si       1.93747219       1.11783186       1.18461138       0.00003341       0.00001193      -0.00012893      -5.38843396
Si       1.93471815       3.35127069      20.93261214      -0.00008531      -0.00007291      -0.00007512      -5.38389642
Si       1.93601866       3.35345075      23.30294878      -0.00006170      -0.00001028      -0.00006203      -5.38351863
Si       1.94068608       5.58911880      24.09684035      -0.00001135      -0.00000459       0.00009823      -5.37986803
Si       1.94313611       5.59038102      26.46561363      -0.00006853      -0.00007887      -0.00000043      -5.38099842
Si       3.86892853      13.40051420      20.93271534      -0.00005771       0.00004231       0.00003409      -5.38403821
Si       3.87028916      13.39898101      23.30313785      -0.00003083      -0.00001917      -0.00005299      -5.38322340
Si       3.86959182       2.23290779      24.09101574       0.00001587      -0.00001594       0.00004503      -5.38761509
Si       3.87159198       2.24212599      26.46030045      -0.00001546       0.00014316      -0.00000046      -5.39289706
Si       3.87597416       4.48552710      27.25080172       0.00003861      -0.00009576       0.00006599      -5.38138954
Si       3.88033919       4.48307846       1.17679620      -0.00010845      -0.00005004       0.00002309      -5.38256774
Si       5.80286365       1.11330624      27.24476371      -0.00000000      -0.00010351       0.00003735      -5.39072039
Si       5.80286365       1.12021702       1.18334626      -0.00000000       0.00010351      -0.00003735      -5.39072039
Si       5.80286365       3.35016172      20.93335165       0.00000000      -0.00002997       0.00005484      -5.38503241
Si       5.80286365       3.35543089      23.30340860      -0.00000000       0.00007039       0.00001842      -5.39116749
Si       5.80286365       5.59294200      24.09091504      -0.00000000      -0.00004631       0.00003179      -5.38200861
Si       5.80286365       5.58861123      26.45705723      -0.00000000       0.00013917      -0.00013651      -5.38123899
Si       7.73679876      13.40051420      20.93271534       0.00005771       0.00004231       0.00003409      -5.38403821
Si       7.73543813      13.39898101      23.30313785       0.00003083      -0.00001917      -0.00005299      -5.38322340
Si       7.73613547       2.23290779      24.09101574      -0.00001587      -0.00001594       0.00004503      -5.38761509
Si       7.73413531       2.24212599      26.46030045       0.00001546       0.00014316      -0.00000046      -5.39289706
Si       7.72975313       4.48552710      27.25080172      -0.00003861      -0.00009576       0.00006599      -5.38138954
Si       7.72538810       4.48307846       1.17679620       0.00010845      -0.00005004       0.00002309      -5.38256774
Si       9.66825510       1.11569140      27.24349859      -0.00003341      -0.00001193       0.00012893      -5.38843396
Si       9.66825510       1.11783186       1.18461138      -0.00003341       0.00001193      -0.00012893      -5.38843396
Si       9.67100915       3.35127069      20.93261214       0.00008531      -0.00007291      -0.00007512      -5.38389642
Si       9.66970864       3.35345075      23.30294878       0.00006170      -0.00001028      -0.00006203      -5.38351863
Si       9.66504122       5.58911880      24.09684035       0.00001135      -0.00000459       0.00009823      -5.37986803
Si       9.66259119       5.59038102      26.46561363       0.00006853      -0.00007887      -0.00000043      -5.38099842
Si       0.00000000       6.70100559      20.93368880      -0.00000000      -0.00013148       0.00010086      -5.38385866
Si       0.00000000       6.70117004      23.30466802      -0.00000000      -0.00003858       0.00006303      -5.38370974
Si       0.00000000       8.93459535      24.09247040      -0.00000000      -0.00013108       0.00002890      -5.39104762
Si       0.00000000       8.92851462      26.46252593       0.00000000      -0.00001880       0.00008108      -5.40016302
Si       0.00000000      11.16699065      27.24298356      -0.00000000       0.00014401       0.00006360      -5.39131622
Si      11.60572729      11.16351810       1.18132893      -0.00000000       0.00006091      -0.00011521      -5.39061638
Si       1.95012606       7.81618242      27.25091379      -0.00007886      -0.00000987      -0.00000360      -5.38399646
Si       1.95012606       7.81848039       1.17719618      -0.00007886       0.00000987       0.00000360      -5.38399646
Si       1.93408751      10.05053082      20.93393959      -0.00001048      -0.00000058       0.00006519      -5.38528864
Si       1.93804717      10.04764256      23.30414818       0.00005817       0.00005552      -0.00001064      -5.39060024
Si       1.93432295      12.28357437      24.09126604       0.00006164       0.00005467       0.00000477      -5.38829184
Si       1.94120540      12.27841374      26.46015140       0.00008246      -0.00005023      -0.00006862      -5.39128835
Si       3.86930139       6.70104301      20.93154852       0.00001959       0.00007097       0.00015208      -5.38691878
Si       3.87298505       6.70321275      23.30180585       0.00001457      -0.00002863      -0.00005353      -5.38527452
Si       3.87583096       8.92922790      24.09120438      -0.00010552       0.00004731       0.00012292      -5.38256380
Si       3.87085506       8.93132717      26.45740473       0.00003215       0.00002891      -0.00017168      -5.37983804
Si       3.88033919      11.15158436      27.25131377      -0.00010845       0.00005004      -0.00002309      -5.38256774
Si       3.87597416      11.14913572       1.17730825       0.00003861       0.00009576      -0.00006599      -5.38138954
P        5.80286365       7.81721611      27.23095884       0.00000000      -0.00009534       0.00008703      -5.67482956
P        5.80286365       7.81744670       1.19715112      -0.00000000       0.00009534      -0.00008703      -5.67482956
Si       5.80286365      10.04963478      20.93158372       0.00000000       0.00004127       0.00012130      -5.38702735
Si       5.80286365      10.04452688      23.30192826      -0.00000000       0.00002059      -0.00003623      -5.38514579
Si       5.80286365      12.27516002      24.09634772       0.00000000       0.00006299       0.00002227      -5.38032442
Si       5.80286365      12.27250583      26.46474602      -0.00000000       0.00002429       0.00000950      -5.37943953
Si       7.73642590       6.70104301      20.93154852      -0.00001959       0.00007097       0.00015208      -5.38691878
Si       7.73274224       6.70321275      23.30180585      -0.00001457      -0.00002863      -0.00005353      -5.38527452
Si       7.72989633       8.92922790      24.09120438       0.00010552       0.00004731       0.00012292      -5.38256380
Si       7.73487223       8.93132717      26.45740473      -0.00003215       0.00002891      -0.00017168      -5.37983804
Si       7.72538810      11.15158436      27.25131377       0.00010845       0.00005004      -0.00002309      -5.38256774
Si       7.72975313      11.14913572       1.17730825      -0.00003861       0.00009576      -0.00006599      -5.38138954
Si       9.65560123       7.81618242      27.25091379       0.00007886      -0.00000987      -0.00000360      -5.38399646
Si       9.65560123       7.81848039       1.17719618       0.00007886       0.00000987       0.00000360      -5.38399646
Si       9.67163978      10.05053082      20.93393959       0.00001048      -0.00000058       0.00006519      -5.38528864
Si       9.66768012      10.04764256      23.30414818      -0.00005817       0.00005552      -0.00001064      -5.39060024
Si       9.67140434      12.28357437      24.09126604      -0.00006164       0.00005467       0.00000477      -5.38829184
Si       9.66452189      12.27841374      26.46015140      -0.00008246      -0.00005023      -0.00006862      -5.39128835
Si      11.60572729      13.40029526       1.96912167       0.00000000       0.00000621       0.00014596      -5.38506096
Si       0.00000000      13.39937518       4.33760617       0.00000000       0.00006957      -0.00007862      -5.38491731
Si       0.00000000       2.23368250       5.12605616      -0.00000000       0.00001691       0.00019224      -5.38257938
Si      11.60572729       2.23359432       7.49590255      -0.00000000      -0.00006651       0.00008312      -5.38421479
Si       0.00000000       4.46769773       8.28572229      -0.00000000      -0.00007332       0.00003901      -5.38329026
Si       0.00000000       4.46717106      10.65654185       0.00000000       0.00005717      -0.00002268      -5.38356411
Si       1.93458596       1.11640508       8.28615381      -0.00006352      -0.00000715       0.00010520      -5.38314196
Si       1.93436516       1.11670671      10.65679874      -0.00008755      -0.00001588      -0.00002402      -5.38359662
Si       1.94120540       3.35624907       1.96795857       0.00008246       0.00005023       0.00006862      -5.39128835
Si       1.93432295       3.35108844       4.33684393       0.00006164      -0.00005467      -0.00000477      -5.38829184
Si       1.93804717       5.58702025       5.12396179       0.00005817      -0.00005552       0.00001064      -5.39060024
Si       1.93408751       5.58413200       7.49417037      -0.00001048       0.00000058      -0.00006519      -5.38528864
Si       3.87159198      13.39253683       1.96780951      -0.00001546      -0.00014316       0.00000046      -5.39289706
Si       3.86959182       0.00061547       4.33709423       0.00001587       0.00001594      -0.00004503      -5.38761509
Si       3.87028916       2.23568181       5.12497212      -0.00003083       0.00001917       0.00005299      -5.38322340
Si       3.86892853       2.23414861       7.49539463      -0.00005771      -0.00004231      -0.00003409      -5.38403821
Si       3.86865474       4.46777860       8.28694066      -0.00004990      -0.00005591      -0.00002960      -5.38406219
Si       3.86857552       4.46715032      10.65713144      -0.00001796       0.00000414      -0.00004346      -5.38357748
Si       5.80286365       1.11677756       8.28614513      -0.00000000       0.00001139       0.00000270      -5.38355215
Si       5.80286365       1.11667361      10.65683811       0.00000000      -0.00002571      -0.00004874      -5.38352679
Si       5.80286365       3.36215698       1.96336395      -0.00000000      -0.00002429      -0.00000950      -5.37943953
Si       5.80286365       3.35950280       4.33176225      -0.00000000      -0.00006299      -0.00002227      -5.38032442
Si       5.80286365       5.59013593       5.12618170       0.00000000      -0.00002059       0.00003623      -5.38514579
Si       5.80286365       5.58502803       7.49652625      -0.00000000      -0.00004127      -0.00012130      -5.38702735
Si       7.73413531      13.39253683       1.96780951       0.00001546      -0.00014316       0.00000046      -5.39289706
Si       7.73613547       0.00061547       4.33709423      -0.00001587       0.00001594      -0.00004503      -5.38761509
Si       7.73543813       2.23568181       5.12497212       0.00003083       0.00001917       0.00005299      -5.38322340
Si       7.73679876       2.23414861       7.49539463       0.00005771      -0.00004231      -0.00003409      -5.38403821
Si       7.73707256       4.46777860       8.28694066       0.00004990      -0.00005591      -0.00002960      -5.38406219
Si       7.73715177       4.46715032      10.65713144       0.00001796       0.00000414      -0.00004346      -5.38357748
Si       9.67114134       1.11640508       8.28615381       0.00006352      -0.00000715       0.00010520      -5.38314196
Si       9.67136214       1.11670671      10.65679874       0.00008755      -0.00001588      -0.00002402      -5.38359662
Si       9.66452189       3.35624907       1.96795857      -0.00008246       0.00005023       0.00006862      -5.39128835
Si       9.67140434       3.35108844       4.33684393      -0.00006164      -0.00005467      -0.00000477      -5.38829184
Si       9.66768012       5.58702025       5.12396179      -0.00005817      -0.00005552       0.00001064      -5.39060024
Si       9.67163978       5.58413200       7.49417037       0.00001048       0.00000058      -0.00006519      -5.38528864
Si       0.00000000       6.70614819       1.96558404      -0.00000000       0.00001880      -0.00008108      -5.40016302
Si       0.00000000       6.70006747       4.33563956       0.00000000       0.00013108      -0.00002890      -5.39104762
Si       0.00000000       8.93349278       5.12344195       0.00000000       0.00003858      -0.00006303      -5.38370974
Si       0.00000000       8.93365722       7.49442116      -0.00000000       0.00013148      -0.00010086      -5.38385866
Si      11.60572729      11.16682753       8.28610598       0.00000000       0.00001655      -0.00000396      -5.38374098
Si      11.60572729      11.16752047      10.65683914      -0.00000000       0.00004447      -0.00002793      -5.38348890
Si       1.93450144       7.81747006       8.28671847      -0.00003903       0.00002741      -0.00006378      -5.38411838
Si       1.93423929       7.81733526      10.65700515       0.00001478       0.00003160      -0.00000772      -5.38350000
Si       1.94313611      10.04428179       1.96249634      -0.00006853       0.00007887       0.00000043      -5.38099842
Si       1.94068608      10.04554402       4.33126962      -0.00001135       0.00000459      -0.00009823      -5.37986803
Si       1.93601866      12.28121207       5.12516119      -0.00006170       0.00001028       0.00006203      -5.38351863
Si       1.93471815      12.28339213       7.49549782      -0.00008531       0.00007291       0.00007512      -5.38389642
Si       3.87085506       6.70333564       1.97070524       0.00003215      -0.00002891       0.00017168      -5.37983804
Si       3.87583096       6.70543492       4.33690558      -0.00010552      -0.00004731      -0.00012292      -5.38256380
Si       3.87298505       8.93145007       5.12630412       0.00001457       0.00002863       0.00005353      -5.38527452
Si       3.86930139       8.93361981       7.49656144       0.00001959      -0.00007097      -0.00015208      -5.38691878
Si       3.86901183      11.16709280       8.28727553      -0.00004692       0.00001463      -0.00000975      -5.38419682
Si       3.86860594      11.16756536      10.65735964      -0.00005388      -0.00002629       0.00002040      -5.38353760
Si       5.80286365       7.81744388       8.28911046      -0.00000000       0.00001818      -0.00003359      -5.38441479
Si       5.80286365       7.81739268      10.65845711       0.00000000      -0.00008665      -0.00011859      -5.38372048
Si       5.80286365      10.04605159       1.97105273       0.00000000      -0.00013917       0.00013651      -5.38123899
Si       5.80286365      10.04172082       4.33719492      -0.00000000       0.00004631      -0.00003179      -5.38200861
Si       5.80286365      12.27923193       5.12470137      -0.00000000      -0.00007039      -0.00001842      -5.39116749
Si       5.80286365      12.28450109       7.49475831       0.00000000       0.00002997      -0.00005484      -5.38503241
Si       7.73487223       6.70333564       1.97070524      -0.00003215      -0.00002891       0.00017168      -5.37983804
Si       7.72989633       6.70543492       4.33690558       0.00010552      -0.00004731      -0.00012292      -5.38256380
Si       7.73274224       8.93145007       5.12630412      -0.00001457       0.00002863       0.00005353      -5.38527452
Si       7.73642590       8.93361981       7.49656144      -0.00001959      -0.00007097      -0.00015208      -5.38691878
Si       7.73671547      11.16709280       8.28727553       0.00004692       0.00001463      -0.00000975      -5.38419682
Si       7.73712136      11.16756536      10.65735964       0.00005388      -0.00002629       0.00002040      -5.38353760
Si       9.67122586       7.81747006       8.28671847       0.00003903       0.00002741      -0.00006378      -5.38411838
Si       9.67148800       7.81733526      10.65700515      -0.00001478       0.00003160      -0.00000772      -5.38350000
Si       9.66259119      10.04428179       1.96249634       0.00006853       0.00007887       0.00000043      -5.38099842
Si       9.66504122      10.04554402       4.33126962       0.00001135       0.00000459      -0.00009823      -5.37986803
Si       9.66970864      12.28121207       5.12516119       0.00006170       0.00001028       0.00006203      -5.38351863
Si       9.67100915      12.28339213       7.49549782       0.00008531       0.00007291       0.00007512      -5.38389642
Si       0.00000000      13.40110126      11.44791744      -0.00000000      -0.00001083       0.00007763      -5.38348045
Si       0.00000000       0.00002342      13.81848423       0.00000000      -0.00000598      -0.00005820      -5.38356191
Si       0.00000000       2.23349984      14.60962574      -0.00000000       0.00000598       0.00005820      -5.38356191
Si       0.00000000       2.23356156      16.98019253      -0.00000000       0.00001083      -0.00007763      -5.38348045
Si       0.00000000       4.46714234      17.77127082       0.00000000      -0.00004447       0.00002793      -5.38348890
Si       0.00000000       4.46783529      20.14200399       0.00000000      -0.00001655       0.00000396      -5.38374098
Si       1.93436516       1.11681655      17.77131122      -0.00008755       0.00001588       0.00002402      -5.38359662
Si       1.93458596       1.11711818      20.14195616      -0.00006352       0.00000715      -0.00010520      -5.38314196
Si       1.93417882       3.35027898      11.44791569      -0.00002826       0.00003946       0.00000045      -5.38353963
Si       1.93423266       3.35021368      13.81843944      -0.00001537       0.00008854      -0.00000272      -5.38353216
Si       1.93417179       5.58371279      14.60955410       0.00005103       0.00009195      -0.00001986      -5.38357432
Si       1.93424177       5.58384838      16.97998179      -0.00000814       0.00002021      -0.00005677      -5.38355271
Si       3.86859223       0.00006676      11.44812248      -0.00001248      -0.00004347       0.00000943      -5.38357589
Si       3.86853582       0.00003145      13.81855703       0.00002004      -0.00005396       0.00004808      -5.38356527
Si       3.86853582       2.23349181      14.60955293       0.00002004       0.00005396      -0.00004808      -5.38356527
Si       3.86859223       2.23345650      16.97998748      -0.00001248       0.00004347      -0.00000943      -5.38357589
Si       3.86860594       4.46709745      17.77075033      -0.00005388       0.00002629      -0.00002040      -5.38353760
Si       3.86901183       4.46757001      20.14083444      -0.00004692      -0.00001463       0.00000975      -5.38419682
Si       5.80286365       1.11684965      17.77127186      -0.00000000       0.00002571       0.00004874      -5.38352679
Si       5.80286365       1.11674570      20.14196484       0.00000000      -0.00001139      -0.00000270      -5.38355215
Si       5.80286365       3.35025286      11.44799257       0.00000000      -0.00001649       0.00005741      -5.38352011
Si       5.80286365       3.35014669      13.81843137      -0.00000000       0.00003372       0.00002652      -5.38354635
Si       5.80286365       5.58367562      14.60923938       0.00000000       0.00005397      -0.00011822      -5.38357328
Si       5.80286365       5.58373472      16.97939977      -0.00000000       0.00002579       0.00004911      -5.38361750
Si       7.73713507       0.00006676      11.44812248       0.00001248      -0.00004347       0.00000943      -5.38357589
Si       7.73719148       0.00003145      13.81855703      -0.00002004      -0.00005396       0.00004808      -5.38356527
Si       7.73719148       2.23349181      14.60955293      -0.00002004       0.00005396      -0.00004808      -5.38356527
Si       7.73713507       2.23345650      16.97998748       0.00001248       0.00004347      -0.00000943      -5.38357589
Si       7.73712136       4.46709745      17.77075033       0.00005388       0.00002629      -0.00002040      -5.38353760
Si       7.73671547       4.46757001      20.14083444       0.00004692      -0.00001463       0.00000975      -5.38419682
Si       9.67136214       1.11681655      17.77131122       0.00008755       0.00001588       0.00002402      -5.38359662
Si       9.67114134       1.11711818      20.14195616       0.00006352       0.00000715      -0.00010520      -5.38314196
Si       9.67154848       3.35027898      11.44791569       0.00002826       0.00003946       0.00000045      -5.38353963
Si       9.67149464       3.35021368      13.81843944       0.00001537       0.00008854      -0.00000272      -5.38353216
Si       9.67155551       5.58371279      14.60955410      -0.00005103       0.00009195      -0.00001986      -5.38357432
Si       9.67148552       5.58384838      16.97998179       0.00000814       0.00002021      -0.00005677      -5.38355271
Si       0.00000000       6.70048751      11.44803007      -0.00000000       0.00003380       0.00000445      -5.38366028
Si       0.00000000       6.70056145      13.81846367       0.00000000       0.00003056       0.00002009      -5.38354880
Si       0.00000000       8.93410137      14.60964629       0.00000000      -0.00003056      -0.00002009      -5.38354880
Si       0.00000000       8.93417530      16.98007989      -0.00000000      -0.00003380      -0.00000445      -5.38366028
Si       0.00000000      11.16749176      17.77156812       0.00000000      -0.00005717       0.00002268      -5.38356411
Si       0.00000000      11.16696508      20.14238768      -0.00000000       0.00007332      -0.00003901      -5.38329026
Si       1.93423929       7.81732756      17.77110481       0.00001478      -0.00003160       0.00000772      -5.38350000
Si       1.93450144       7.81719275      20.14139149      -0.00003903      -0.00002741       0.00006378      -5.38411838
Si       1.93424177      10.05081443      11.44812818      -0.00000814      -0.00002021       0.00005677      -5.38355271
Si       1.93417179      10.05095002      13.81855587       0.00005103      -0.00009195       0.00001986      -5.38357432
Si       1.93423266      12.28444913      14.60967052      -0.00001537      -0.00008854       0.00000272      -5.38353216
Si       1.93417882      12.28438384      16.98019427      -0.00002826      -0.00003946      -0.00000045      -5.38353963
Si       3.86847504       6.70059291      11.44848305      -0.00001957       0.00001847       0.00002560      -5.38360926
Si       3.86843617       6.70050980      13.81869667       0.00001145       0.00005431       0.00004433      -5.38355868
Si       3.86843617       8.93415302      14.60941329       0.00001145      -0.00005431      -0.00004433      -5.38355868
Si       3.86847504       8.93406991      16.97962691      -0.00001957      -0.00001847      -0.00002560      -5.38360926
Si       3.86857552      11.16751250      17.77097853      -0.00001796      -0.00000414       0.00004346      -5.38357748
Si       3.86865474      11.16688421      20.14116931      -0.00004990       0.00005591       0.00002960      -5.38406219
Si       5.80286365       7.81727013      17.76965285      -0.00000000       0.00008665       0.00011859      -5.38372048
Si       5.80286365       7.81721893      20.13899951       0.00000000      -0.00001818       0.00003359      -5.38441479
Si       5.80286365      10.05092810      11.44871019       0.00000000      -0.00002579      -0.00004911      -5.38361750
Si       5.80286365      10.05098720      13.81887058       0.00000000      -0.00005397       0.00011822      -5.38357328
Si       5.80286365      12.28451612      14.60967860      -0.00000000      -0.00003372      -0.00002652      -5.38354635
Si       5.80286365      12.28440996      16.98011740      -0.00000000       0.00001649      -0.00005741      -5.38352011
Si       7.73725225       6.70059291      11.44848305       0.00001957       0.00001847       0.00002560      -5.38360926
Si       7.73729113       6.70050980      13.81869667      -0.00001145       0.00005431       0.00004433      -5.38355868
Si       7.73729113       8.93415302      14.60941329      -0.00001145      -0.00005431      -0.00004433      -5.38355868
Si       7.73725225       8.93406991      16.97962691       0.00001957      -0.00001847      -0.00002560      -5.38360926
Si       7.73715177      11.16751250      17.77097853       0.00001796      -0.00000414       0.00004346      -5.38357748
Si       7.73707256      11.16688421      20.14116931       0.00004990       0.00005591       0.00002960      -5.38406219
Si       9.67148800       7.81732756      17.77110481      -0.00001478      -0.00003160       0.00000772      -5.38350000
Si       9.67122586       7.81719275      20.14139149       0.00003903      -0.00002741       0.00006378      -5.38411838
Si       9.67148552      10.05081443      11.44812818       0.00000814      -0.00002021       0.00005677      -5.38355271
Si       9.67155551      10.05095002      13.81855587      -0.00005103      -0.00009195       0.00001986      -5.38357432
Si       9.67149464      12.28444913      14.60967052       0.00001537      -0.00008854       0.00000272      -5.38353216
Si       9.67154848      12.28438384      16.98019427       0.00002826      -0.00003946      -0.00000045      -5.38353963
