514
Lattice="21.724 0.0 0.0 0.0 21.724 0.0 0.0 0.0 21.724" Properties=species:S:1:pos:R:3:forces:R:3 energy=-2752.9683943237446 free_energy=-2752.9683943237446 pbc="T T T"
Si       0.00000000       0.00000000       0.00000000       0.00005221      -0.00004853      -0.00004853
Si       1.35775000       1.35775000       1.35775000      -0.00006943      -0.00005073      -0.00005073
Si       0.00000000       2.71550000       2.71550000       0.00043956      -0.00000501      -0.00000501
Si       1.35775000       4.07325000       4.07325000       0.00003945      -0.00013692      -0.00013692
Si       2.71550000       0.00000000       2.71550000       0.00003102       0.00002397       0.00006342
Si       4.07325000       1.35775000       4.07325000      -0.00042973      -0.00055032      -0.00028585
Si       2.71550000       2.71550000       0.00000000       0.00003102       0.00006342       0.00002397
Si       4.07325000       4.07325000       1.35775000      -0.00042973      -0.00028585      -0.00055032
Si       0.00000000       0.00000000       5.43100000      -0.00004833      -0.00003547       0.00009636
Si       1.35775000       1.35775000       6.78875000      -0.00012713       0.00004037       0.00043702
Si       0.00000000       2.71550000       8.14650000       0.00004035      -0.00085259       0.00029912
Si       1.35775000       4.07325000       9.50425000      -0.00045553      -0.00002477      -0.00003807
Si       2.71550000       0.00000000       8.14650000      -0.00021663       0.00006870       0.00035475
Si       4.07325000       1.35775000       9.50425000      -0.00081393      -0.00103951      -0.00018297
Si       2.71550000       2.71550000       5.43100000      -0.00025379      -0.00025393       0.00008183
Si       4.07325000       4.07325000       6.78875000      -0.00009396       0.00083024      -0.00153880
Si       0.00000000       0.00000000      10.86200000      -0.00003486      -0.00014297      -0.00056202
Si       1.35775000       1.35775000      12.21975000       0.00002339       0.00013699      -0.00017911
Si       0.00000000       2.71550000      13.57750000       0.00039362      -0.00045315      -0.00019927
Si       1.35775000       4.07325000      14.93525000       0.00049093       0.00006191      -0.00003865
Si       2.71550000       0.00000000      13.57750000      -0.00024926      -0.00017991       0.00010562
Si       4.07325000       1.35775000      14.93525000      -0.00036999      -0.00012862       0.00009065
Si       2.71550000       2.71550000      10.86200000      -0.00032585      -0.00031648      -0.00011662
Si       4.07325000       4.07325000      12.21975000       0.00008250       0.00148957      -0.00183012
Si       0.00000000       0.00000000      16.29300000      -0.00002012       0.00000472      -0.00002390
Si       1.35775000       1.35775000      17.65075000       0.00005231      -0.00004823       0.00004866
Si       0.00000000       2.71550000      19.00850000       0.00000565       0.00001004      -0.00002814
Si       1.35775000       4.07325000      20.36625000      -0.00004407      -0.00002608      -0.00004300
Si       2.71550000       0.00000000      19.00850000       0.00000044       0.00000036       0.00000050
Si       4.07325000       1.35775000      20.36625000      -0.00013149      -0.00013440      -0.00012818
Si       2.71550000       2.71550000      16.29300000      -0.00025382      -0.00014204       0.00016403
Si       4.07325000       4.07325000      17.65075000       0.00001205       0.00030941      -0.00010709
Si       0.00000000       5.43100000       0.00000000      -0.00004833       0.00009636      -0.00003547
Si       1.35775000       6.78875000       1.35775000      -0.00012713       0.00043702       0.00004037
Si       0.00000000       8.14650000       2.71550000       0.00004035       0.00029912      -0.00085259
Si       1.35775000       9.50425000       4.07325000      -0.00045553      -0.00003807      -0.00002477
Si       2.71550000       5.43100000       2.71550000      -0.00025379       0.00008183      -0.00025393
Si       4.07325000       6.78875000       4.07325000      -0.00009396      -0.00153880       0.00083024
Si       2.71550000       8.14650000       0.00000000      -0.00021663       0.00035475       0.00006870
Si       4.07325000       9.50425000       1.35775000      -0.00081393      -0.00018297      -0.00103951
Si       0.00000000       5.43100000       5.43100000      -0.00137991       0.00044328       0.00044328
Si       1.35775000       6.78875000       6.78875000      -0.00038463      -0.00012019      -0.00012019
Si       0.00000000       8.14650000       8.14650000       0.01021232      -0.00268658      -0.00268658
Si       1.35775000       9.50425000       9.50425000       0.00302090      -0.00015477      -0.00015477
Si       2.71550000       5.43100000       8.14650000      -0.00014855       0.00018206       0.00011029
Si       4.07325000       6.78875000       9.50425000      -0.00298186       0.00054188      -0.00112380
Si       2.71550000       8.14650000       5.43100000      -0.00014855       0.00011029       0.00018206
Si       4.07325000       9.50425000       6.78875000      -0.00298186      -0.00112380       0.00054188
Si       0.00000000       5.43100000      10.86200000      -0.00104966      -0.00057901      -0.00030658
Si       1.35775000       6.78875000      12.21975000       0.00012804      -0.00001304      -0.00027569
Si       0.00000000       8.14650000      13.57750000      -0.00100399       0.00039194       0.00031871
Si       1.35775000       9.50425000      14.93525000      -0.00046137       0.00000445       0.00012439
Si       2.71550000       5.43100000      13.57750000      -0.00043154      -0.00014416       0.00052529
Si       4.07325000       6.78875000      14.93525000      -0.00112016      -0.00022725       0.00149582
Si       2.71550000       8.14650000      10.86200000      -0.00014912      -0.00020976      -0.00026395
Si       4.07325000       9.50425000      12.21975000      -0.00079624       0.00177669      -0.00091127
Si       0.00000000       5.43100000      16.29300000       0.00018493       0.00050824       0.00047638
Si       1.35775000       6.78875000      17.65075000      -0.00015591       0.00012981      -0.00016967
Si       0.00000000       8.14650000      19.00850000      -0.00027596       0.00027940       0.00008564
Si       1.35775000       9.50425000      20.36625000      -0.00027884      -0.00006442       0.00012301
Si       2.71550000       5.43100000      19.00850000      -0.00010708       0.00005178       0.00008854
Si       4.07325000       6.78875000      20.36625000      -0.00002612      -0.00008620      -0.00000517
Si       2.71550000       8.14650000      16.29300000      -0.00025334      -0.00013491      -0.00005042
Si       4.07325000       9.50425000      17.65075000      -0.00013923       0.00039197       0.00003705
Si       0.00000000      10.86200000       0.00000000      -0.00003486      -0.00056202      -0.00014297
Si       1.35775000      12.21975000       1.35775000       0.00002339      -0.00017911       0.00013699
Si       0.00000000      13.57750000       2.71550000       0.00039362      -0.00019927      -0.00045315
Si       1.35775000      14.93525000       4.07325000       0.00049093      -0.00003865       0.00006191
Si       2.71550000      10.86200000       2.71550000      -0.00032585      -0.00011662      -0.00031648
Si       4.07325000      12.21975000       4.07325000       0.00008250      -0.00183012       0.00148957
Si       2.71550000      13.57750000       0.00000000      -0.00024926       0.00010562      -0.00017991
Si       4.07325000      14.93525000       1.35775000      -0.00036999       0.00009065      -0.00012862
Si       0.00000000      10.86200000       5.43100000      -0.00104966      -0.00030658      -0.00057901
Si       1.35775000      12.21975000       6.78875000       0.00012804      -0.00027569      -0.00001304
Si       0.00000000      13.57750000       8.14650000      -0.00100399       0.00031871       0.00039194
Si       1.35775000      14.93525000       9.50425000      -0.00046137       0.00012439       0.00000445
Si       2.71550000      10.86200000       8.14650000      -0.00014912      -0.00026395      -0.00020976
Si       4.07325000      12.21975000       9.50425000      -0.00079624      -0.00091127       0.00177669
Si       2.71550000      13.57750000       5.43100000      -0.00043154       0.00052529      -0.00014416
Si       4.07325000      14.93525000       6.78875000      -0.00112016       0.00149582      -0.00022725
Si       0.00000000      10.86200000      10.86200000       0.00754718       0.00261840       0.00261840
Si       1.35775000      12.21975000      12.21975000      -0.00053578       0.00034721       0.00034721
Si       0.00000000      13.57750000      13.57750000      -0.00063516      -0.00025294      -0.00025294
Si       1.35775000      14.93525000      14.93525000       0.00015706       0.00008059       0.00008059
Si       2.71550000      10.86200000      13.57750000      -0.00026006       0.00018444       0.00027773
Si       4.07325000      12.21975000      14.93525000      -0.00043684       0.00020971       0.00077056
Si       2.71550000      13.57750000      10.86200000      -0.00026006       0.00027773       0.00018444
Si       4.07325000      14.93525000      12.21975000      -0.00043684       0.00077056       0.00020971
Si       0.00000000      10.86200000      16.29300000       0.00039842      -0.00026142       0.00064309
Si       1.35775000      12.21975000      17.65075000      -0.00004389      -0.00029603       0.00012546
Si       0.00000000      13.57750000      19.00850000       0.00009746      -0.00000740       0.00013257
Si       1.35775000      14.93525000      20.36625000       0.00003012       0.00001763      -0.00002585
Si       2.71550000      10.86200000      19.00850000      -0.00009808      -0.00013104      -0.00013343
Si       4.07325000      12.21975000      20.36625000      -0.00004508      -0.00030582       0.00009962
Si       2.71550000      13.57750000      16.29300000       0.00014061      -0.00016366      -0.00008642
Si       4.07325000      14.93525000      17.65075000      -0.00030845       0.00022501       0.00024280
Si       0.00000000      16.29300000       0.00000000      -0.00002012      -0.00002390       0.00000472
Si       1.35775000      17.65075000       1.35775000       0.00005231       0.00004866      -0.00004823
Si       0.00000000      19.00850000       2.71550000       0.00000565      -0.00002814       0.00001004
Si       1.35775000      20.36625000       4.07325000      -0.00004407      -0.00004300      -0.00002608
Si       2.71550000      16.29300000       2.71550000      -0.00025382       0.00016403      -0.00014204
Si       4.07325000      17.65075000       4.07325000       0.00001205      -0.00010709       0.00030941
Si       2.71550000      19.00850000       0.00000000       0.00000044       0.00000050       0.00000036
Si       4.07325000      20.36625000       1.35775000      -0.00013149      -0.00012818      -0.00013440
Si       0.00000000      16.29300000       5.43100000       0.00018493       0.00047638       0.00050824
Si       1.35775000      17.65075000       6.78875000      -0.00015591      -0.00016967       0.00012981
Si       0.00000000      19.00850000       8.14650000      -0.00027596       0.00008564       0.00027940
Si       1.35775000      20.36625000       9.50425000      -0.00027884       0.00012301      -0.00006442
Si       2.71550000      16.29300000       8.14650000      -0.00025334      -0.00005042      -0.00013491
Si       4.07325000      17.65075000       9.50425000      -0.00013923       0.00003705       0.00039197
Si       2.71550000      19.00850000       5.43100000      -0.00010708       0.00008854       0.00005178
Si       4.07325000      20.36625000       6.78875000      -0.00002612      -0.00000517      -0.00008620
Si       0.00000000      16.29300000      10.86200000       0.00039842       0.00064309      -0.00026142
Si       1.35775000      17.65075000      12.21975000      -0.00004389       0.00012546      -0.00029603
Si       0.00000000      19.00850000      13.57750000       0.00009746       0.00013257      -0.00000740
Si       1.35775000      20.36625000      14.93525000       0.00003012      -0.00002585       0.00001763
Si       2.71550000      16.29300000      13.57750000       0.00014061      -0.00008642      -0.00016366
Si       4.07325000      17.65075000      14.93525000      -0.00030845       0.00024280       0.00022501
Si       2.71550000      19.00850000      10.86200000      -0.00009808      -0.00013343      -0.00013104
Si       4.07325000      20.36625000      12.21975000      -0.00004508       0.00009962      -0.00030582
Si       0.00000000      16.29300000      16.29300000       0.00015447       0.00003149       0.00003149
Si       1.35775000      17.65075000      17.65075000       0.00000198       0.00000151       0.00000151
Si       0.00000000      19.00850000      19.00850000       0.00000266       0.00000322       0.00000322
Si       1.35775000      20.36625000      20.36625000       0.00000008      -0.00000003      -0.00000003
Si       2.71550000      16.29300000      19.00850000       0.00000288       0.00000243       0.00000266
Si       4.07325000      17.65075000      20.36625000      -0.00000024       0.00000016      -0.00000010
Si       2.71550000      19.00850000      16.29300000       0.00000288       0.00000266       0.00000243
Si       4.07325000      20.36625000      17.65075000      -0.00000024      -0.00000010       0.00000016
Si       5.43100000       0.00000000       0.00000000      -0.00006963      -0.00008715      -0.00008715
Si       6.78875000       1.35775000       1.35775000       0.00010359      -0.00035228      -0.00035228
Si       5.43100000       2.71550000       2.71550000       0.00000106       0.00168895       0.00168895
Si       6.78875000       4.07325000       4.07325000      -0.00365462      -0.00355310      -0.00355310
Si       8.14650000       0.00000000       2.71550000       0.00157314      -0.00018495       0.00040989
Si       9.50425000       1.35775000       4.07325000      -0.00356959      -0.00090458      -0.00112123
Si       8.14650000       2.71550000       0.00000000       0.00157314       0.00040989      -0.00018495
Si       9.50425000       4.07325000       1.35775000      -0.00356959      -0.00112123      -0.00090458
Si       5.43100000       0.00000000       5.43100000      -0.00062696      -0.00035153       0.00057079
Si       6.78875000       1.35775000       6.78875000       0.00052235      -0.00049921      -0.00387260
Si       5.43100000       2.71550000       8.14650000       0.00107463       0.00034805       0.00388126
Si       6.78875000       4.07325000       9.50425000      -0.01419260      -0.01917378      -0.00316968
Si       8.14650000       0.00000000       8.14650000       0.00002816       0.00026747       0.00172908
Si       9.50425000       1.35775000       9.50425000      -0.01215190      -0.01120670       0.00025926
Si       8.14650000       2.71550000       5.43100000      -0.01343744      -0.01505125      -0.00174486
Si       9.50425000       4.07325000       6.78875000       0.04500200       0.00876680      -0.00293844
Si       5.43100000       0.00000000      10.86200000      -0.00079242      -0.00051524       0.00072854
Si       6.78875000       1.35775000      12.21975000       0.00123723      -0.00024835      -0.00428816
Si       5.43100000       2.71550000      13.57750000      -0.00089735      -0.00116278       0.00097075
Si       6.78875000       4.07325000      14.93525000       0.00195157       0.00561007      -0.00171292
Si       8.14650000       0.00000000      13.57750000      -0.00067789      -0.00021014       0.00064730
Si       9.50425000       1.35775000      14.93525000       0.00415979      -0.00007573      -0.00043494
Si       8.14650000       2.71550000      10.86200000      -0.00078000       0.00054466       0.00581240
Si       9.50425000       4.07325000      12.21975000      -0.03973176      -0.03313741       0.01984805
Si       5.43100000       0.00000000      16.29300000      -0.00027973      -0.00030371       0.00030380
Si       6.78875000       1.35775000      17.65075000      -0.00008476      -0.00010945       0.00023360
Si       5.43100000       2.71550000      19.00850000      -0.00015585      -0.00016703       0.00029175
Si       6.78875000       4.07325000      20.36625000      -0.00037537      -0.00021598      -0.00034743
Si       8.14650000       0.00000000      19.00850000      -0.00008677      -0.00012255       0.00023531
Si       9.50425000       1.35775000      20.36625000       0.00005168      -0.00011917       0.00028454
Si       8.14650000       2.71550000      16.29300000      -0.00010099      -0.00058265       0.00017776
Si       9.50425000       4.07325000      17.65075000       0.00158640       0.00056426      -0.00002745
Si       5.43100000       5.43100000       0.00000000      -0.00062696       0.00057079      -0.00035153
Si       6.78875000       6.78875000       1.35775000       0.00052235      -0.00387260      -0.00049921
Si       5.43100000       8.14650000       2.71550000       0.00107463       0.00388126       0.00034805
Si       6.78875000       9.50425000       4.07325000      -0.01419260      -0.00316968      -0.01917378
Si       8.14650000       5.43100000       2.71550000      -0.01343744      -0.00174486      -0.01505125
Si       9.50425000       6.78875000       4.07325000       0.04500200      -0.00293844       0.00876680
Si       8.14650000       8.14650000       0.00000000       0.00002816       0.00172908       0.00026747
Si       9.50425000       9.50425000       1.35775000      -0.01215190       0.00025926      -0.01120670
Si       5.43100000       5.43100000       5.43100000      -0.00616886      -0.00825178      -0.00825178
Si       6.78875000       6.78875000       6.78875000      -0.01372698      -0.00098130      -0.00098130
Si       5.43100000       8.14650000       8.14650000      -0.02627620       0.00112592       0.00112592
Si       6.78875000       9.50425000       9.50425000      -0.01851819       0.00071612       0.00071612
Si       8.14650000       5.43100000       8.14650000       0.04315145       0.03948062      -0.02024484
Si       9.50425000       6.78875000       9.50425000       0.07463501       0.16847325      -0.07567079
Si       8.14650000       8.14650000       5.43100000       0.04315145      -0.02024484       0.03948062
Si       9.50425000       9.50425000       6.78875000       0.07463501      -0.07567079       0.16847325
Si       5.43100000       5.43100000      10.86200000      -0.00532020      -0.00398984       0.00550547
Si       6.78875000       6.78875000      12.21975000      -0.02180388      -0.01134216       0.02937954
Si       5.43100000       8.14650000      13.57750000       0.00009793      -0.00529277      -0.00113959
Si       6.78875000       9.50425000      14.93525000       0.00163670       0.00721771      -0.00040988
Si       8.14650000       5.43100000      13.57750000      -0.00705060      -0.00729388       0.00393249
Si       9.50425000       6.78875000      14.93525000      -0.02798808      -0.00840827       0.02678235
Si       8.14650000       8.14650000      10.86200000       0.02999408       0.00877087      -0.04142741
Si       9.50425000       9.50425000      12.21975000       0.09759175      -0.01805842      -0.04709723
Si       5.43100000       5.43100000      16.29300000      -0.00100757      -0.00081606       0.00092866
Si       6.78875000       6.78875000      17.65075000      -0.00099603       0.00030897       0.00050280
Si       5.43100000       8.14650000      19.00850000      -0.00006242      -0.00011072      -0.00004799
Si       6.78875000       9.50425000      20.36625000      -0.00040410      -0.00010855      -0.00003054
Si       8.14650000       5.43100000      19.00850000      -0.00035688      -0.00043660       0.00052397
Si       9.50425000       6.78875000      20.36625000      -0.00011792      -0.00042774      -0.00019986
Si       8.14650000       8.14650000      16.29300000       0.00115825      -0.00509046       0.00047531
Si       9.50425000       9.50425000      17.65075000       0.00013436       0.00186146      -0.00005998
Si       5.43100000      10.86200000       0.00000000      -0.00079242       0.00072854      -0.00051524
Si       6.78875000      12.21975000       1.35775000       0.00123723      -0.00428816      -0.00024835
Si       5.43100000      13.57750000       2.71550000      -0.00089735       0.00097075      -0.00116278
Si       6.78875000      14.93525000       4.07325000       0.00195157      -0.00171292       0.00561007
Si       8.14650000      10.86200000       2.71550000      -0.00078000       0.00581240       0.00054466
Si       9.50425000      12.21975000       4.07325000      -0.03973176       0.01984805      -0.03313741
Si       8.14650000      13.57750000       0.00000000      -0.00067789       0.00064730      -0.00021014
Si       9.50425000      14.93525000       1.35775000       0.00415979      -0.00043494      -0.00007573
Si       5.43100000      10.86200000       5.43100000      -0.00532020       0.00550547      -0.00398984
Si       6.78875000      12.21975000       6.78875000      -0.02180388       0.02937954      -0.01134216
Si       5.43100000      13.57750000       8.14650000       0.00009793      -0.00113959      -0.00529277
Si       6.78875000      14.93525000       9.50425000       0.00163670      -0.00040988       0.00721771
Si       8.14650000      10.86200000       8.14650000       0.02999408      -0.04142741       0.00877087
Si       9.50425000      12.21975000       9.50425000       0.09759175      -0.04709723      -0.01805842
Si       8.14650000      13.57750000       5.43100000      -0.00705060       0.00393249      -0.00729388
Si       9.50425000      14.93525000       6.78875000      -0.02798808       0.02678235      -0.00840827
Si       5.43100000      10.86200000      10.86200000      -0.00942749       0.01069966       0.01069966
Si       6.78875000      12.21975000      12.21975000      -0.01035973       0.00729650       0.00729650
Si       5.43100000      13.57750000      13.57750000       0.00044018      -0.00348910      -0.00348910
Si       6.78875000      14.93525000      14.93525000      -0.00050749       0.00092186       0.00092186
Si       8.14650000      10.86200000      13.57750000      -0.02404435       0.00249496       0.02854503
Si       9.50425000      12.21975000      14.93525000      -0.00456925       0.00380155       0.00106649
Si       8.14650000      13.57750000      10.86200000      -0.02404435       0.02854503       0.00249496
Si       9.50425000      14.93525000      12.21975000      -0.00456925       0.00106649       0.00380155
Si       5.43100000      10.86200000      16.29300000      -0.00147504      -0.00013326       0.00155712
Si       6.78875000      12.21975000      17.65075000      -0.00114296       0.00076548       0.00076544
Si       5.43100000      13.57750000      19.00850000      -0.00004093      -0.00019279      -0.00022174
Si       6.78875000      14.93525000      20.36625000      -0.00004115       0.00005723      -0.00000616
Si       8.14650000      10.86200000      19.00850000      -0.00035617       0.00011889      -0.00028007
Si       9.50425000      12.21975000      20.36625000      -0.00000016       0.00015977       0.00039286
Si       8.14650000      13.57750000      16.29300000       0.00335006      -0.00447524      -0.00011832
Si       9.50425000      14.93525000      17.65075000      -0.00033291       0.00055630      -0.00028133
Si       5.43100000      16.29300000       0.00000000      -0.00027973       0.00030380      -0.00030371
Si       6.78875000      17.65075000       1.35775000      -0.00008476       0.00023360      -0.00010945
Si       5.43100000      19.00850000       2.71550000      -0.00015585       0.00029175      -0.00016703
Si       6.78875000      20.36625000       4.07325000      -0.00037537      -0.00034743      -0.00021598
Si       8.14650000      16.29300000       2.71550000      -0.00010099       0.00017776      -0.00058265
Si       9.50425000      17.65075000       4.07325000       0.00158640      -0.00002745       0.00056426
Si       8.14650000      19.00850000       0.00000000      -0.00008677       0.00023531      -0.00012255
Si       9.50425000      20.36625000       1.35775000       0.00005168       0.00028454      -0.00011917
Si       5.43100000      16.29300000       5.43100000      -0.00100757       0.00092866      -0.00081606
Si       6.78875000      17.65075000       6.78875000      -0.00099603       0.00050280       0.00030897
Si       5.43100000      19.00850000       8.14650000      -0.00006242      -0.00004799      -0.00011072
Si       6.78875000      20.36625000       9.50425000      -0.00040410      -0.00003054      -0.00010855
Si       8.14650000      16.29300000       8.14650000       0.00115825       0.00047531      -0.00509046
Si       9.50425000      17.65075000       9.50425000       0.00013436      -0.00005998       0.00186146
Si       8.14650000      19.00850000       5.43100000      -0.00035688       0.00052397      -0.00043660
Si       9.50425000      20.36625000       6.78875000      -0.00011792      -0.00019986      -0.00042774
Si       5.43100000      16.29300000      10.86200000      -0.00147504       0.00155712      -0.00013326
Si       6.78875000      17.65075000      12.21975000      -0.00114296       0.00076544       0.00076548
Si       5.43100000      19.00850000      13.57750000      -0.00004093      -0.00022174      -0.00019279
Si       6.78875000      20.36625000      14.93525000      -0.00004115      -0.00000616       0.00005723
Si       8.14650000      16.29300000      13.57750000       0.00335006      -0.00011832      -0.00447524
Si       9.50425000      17.65075000      14.93525000      -0.00033291      -0.00028133       0.00055630
Si       8.14650000      19.00850000      10.86200000      -0.00035617      -0.00028007       0.00011889
Si       9.50425000      20.36625000      12.21975000      -0.00000016       0.00039286       0.00015977
Si       5.43100000      16.29300000      16.29300000      -0.00045709       0.00024279       0.00024279
Si       6.78875000      17.65075000      17.65075000      -0.00020735       0.00024034       0.00024034
Si       5.43100000      19.00850000      19.00850000      -0.00000083       0.00000058       0.00000058
Si       6.78875000      20.36625000      20.36625000      -0.00007268      -0.00007889      -0.00007889
Si       8.14650000      16.29300000      19.00850000      -0.00003519       0.00006276      -0.00001260
Si       9.50425000      17.65075000      20.36625000       0.00023910       0.00001875       0.00016236
Si       8.14650000      19.00850000      16.29300000      -0.00003519      -0.00001260       0.00006276
Si       9.50425000      20.36625000      17.65075000       0.00023910       0.00016236       0.00001875
Si      10.86200000       0.00000000       0.00000000      -0.00010799      -0.00015429      -0.00015429
Si      12.21975000       1.35775000       1.35775000      -0.00173665       0.00008891       0.00008891
Si      10.86200000       2.71550000       2.71550000      -0.00348659      -0.00414667      -0.00414667
Si      12.21975000       4.07325000       4.07325000       0.01867218      -0.00335632      -0.00335632
Si      13.57750000       0.00000000       2.71550000       0.00030122       0.00032822      -0.00014859
Si      14.93525000       1.35775000       4.07325000      -0.00118194      -0.00209049      -0.00562028
Si      13.57750000       2.71550000       0.00000000       0.00030122      -0.00014859       0.00032822
Si      14.93525000       4.07325000       1.35775000      -0.00118194      -0.00562028      -0.00209049
Si      10.86200000       0.00000000       5.43100000       0.00100949       0.00114539       0.00082571
Si      12.21975000       1.35775000       6.78875000      -0.01269107      -0.02054520      -0.00760455
Si      10.86200000       2.71550000       8.14650000      -0.01886807      -0.00673357       0.00316155
Si      12.21975000       4.07325000       9.50425000       0.01984757       0.04105309      -0.00810671
Si      13.57750000       0.00000000       8.14650000       0.00084646      -0.00340312      -0.00205052
Si      14.93525000       1.35775000       9.50425000       0.00530096      -0.00827626       0.00758544
Si      13.57750000       2.71550000       5.43100000       0.00809037      -0.01854111      -0.02386662
Si      14.93525000       4.07325000       6.78875000      -0.01703183       0.01145905      -0.02430590
Si      10.86200000       0.00000000      10.86200000      -0.00290835      -0.00384327       0.00066572
Si      12.21975000       1.35775000      12.21975000       0.00657386      -0.00629125       0.00369135
Si      10.86200000       2.71550000      13.57750000      -0.01557294      -0.00364660       0.00217482
Si      12.21975000       4.07325000      14.93525000      -0.00034543      -0.00821319       0.01076373
Si      13.57750000       0.00000000      13.57750000      -0.00115903       0.00017421       0.00093242
Si      14.93525000       1.35775000      14.93525000       0.00020575       0.00007677       0.00037983
Si      13.57750000       2.71550000      10.86200000      -0.00752208      -0.02149288       0.01670844
Si      14.93525000       4.07325000      12.21975000      -0.00514876      -0.00989460       0.02046854
Si      10.86200000       0.00000000      16.29300000      -0.00024017       0.00014157       0.00036969
Si      12.21975000       1.35775000      17.65075000      -0.00008715      -0.00040854       0.00038249
Si      10.86200000       2.71550000      19.00850000       0.00003416      -0.00016807      -0.00036329
Si      12.21975000       4.07325000      20.36625000      -0.00013275      -0.00020796       0.00009349
Si      13.57750000       0.00000000      19.00850000      -0.00014579       0.00042693      -0.00012901
Si      14.93525000       1.35775000      20.36625000      -0.00008768      -0.00017503      -0.00046742
Si      13.57750000       2.71550000      16.29300000      -0.00274824      -0.00015030      -0.00061719
Si      14.93525000       4.07325000      17.65075000      -0.00005530      -0.00046293       0.00026448
Si      10.86200000       5.43100000       0.00000000       0.00100949       0.00082571       0.00114539
Si      12.21975000       6.78875000       1.35775000      -0.01269107      -0.00760455      -0.02054520
Si      10.86200000       8.14650000       2.71550000      -0.01886807       0.00316155      -0.00673357
Si      12.21975000       9.50425000       4.07325000       0.01984757      -0.00810671       0.04105309
Si      13.57750000       5.43100000       2.71550000       0.00809037      -0.02386662      -0.01854111
Si      14.93525000       6.78875000       4.07325000      -0.01703183      -0.02430590       0.01145905
Si      13.57750000       8.14650000       0.00000000       0.00084646      -0.00205052      -0.00340312
Si      14.93525000       9.50425000       1.35775000       0.00530096       0.00758544      -0.00827626
Si      10.86200000       5.43100000       5.43100000      -0.23160741       0.08482412       0.08482412
Si      12.21975000       6.78875000       6.78875000       0.45389230      -0.28567568      -0.28567568
Si      10.86200000       8.14650000       8.14650000     -30.36457892       0.07652668       0.07652668
Si      12.21975000       9.50425000       9.50425000     -30.07784220       0.22637997       0.22637997
Si      13.57750000       5.43100000       8.14650000       0.24587537      -0.27981161      -0.01345572
Si      14.93525000       6.78875000       9.50425000       0.24526351      -0.30164352      -0.01869388
Si      13.57750000       8.14650000       5.43100000       0.24587537      -0.01345572      -0.27981161
Si      14.93525000       9.50425000       6.78875000       0.24526351      -0.01869388      -0.30164352
Si      10.86200000       5.43100000      10.86200000       0.10799591      -0.01919069       0.05074541
Si      12.21975000       6.78875000      12.21975000      -0.26114079       0.05780580      -0.11893962
Si      10.86200000       8.14650000      13.57750000       0.03489315      -0.00763564      -0.02363885
Si      12.21975000       9.50425000      14.93525000      -0.01503661       0.01351050       0.01403577
Si      13.57750000       5.43100000      13.57750000       0.04322304      -0.00108998      -0.00125428
Si      14.93525000       6.78875000      14.93525000       0.00227332      -0.02031205       0.00805691
Si      13.57750000       8.14650000      10.86200000       0.70366932      -0.03850553       0.43454020
Si      14.93525000       9.50425000      12.21975000       0.16236878      -0.02920900       0.25694868
Si      10.86200000       5.43100000      16.29300000      -0.00611532      -0.00151104       0.00615371
Si      12.21975000       6.78875000      17.65075000       0.00123999       0.00077120      -0.00042746
Si      10.86200000       8.14650000      19.00850000       0.00015670      -0.00013293      -0.00015611
Si      12.21975000       9.50425000      20.36625000       0.00046739       0.00003517      -0.00038703
Si      13.57750000       5.43100000      19.00850000       0.00008448       0.00010694      -0.00049165
Si      14.93525000       6.78875000      20.36625000       0.00022106       0.00020360       0.00135210
Si      13.57750000       8.14650000      16.29300000      -0.00845448      -0.00533520       0.01613485
Si      14.93525000       9.50425000      17.65075000       0.00072703      -0.00140609       0.00109679
Si      10.86200000      10.86200000       0.00000000      -0.00290835       0.00066572      -0.00384327
Si      12.21975000      12.21975000       1.35775000       0.00657386       0.00369135      -0.00629125
Si      10.86200000      13.57750000       2.71550000      -0.01557294       0.00217482      -0.00364660
Si      12.21975000      14.93525000       4.07325000      -0.00034543       0.01076373      -0.00821319
Si      13.57750000      10.86200000       2.71550000      -0.00752208       0.01670844      -0.02149288
Si      14.93525000      12.21975000       4.07325000      -0.00514876       0.02046854      -0.00989460
Si      13.57750000      13.57750000       0.00000000      -0.00115903       0.00093242       0.00017421
Si      14.93525000      14.93525000       1.35775000       0.00020575       0.00037983       0.00007677
Si      10.86200000      10.86200000       5.43100000       0.10799591       0.05074541      -0.01919069
Si      12.21975000      12.21975000       6.78875000      -0.26114079      -0.11893962       0.05780580
Si      10.86200000      13.57750000       8.14650000       0.03489315      -0.02363885      -0.00763564
Si      12.21975000      14.93525000       9.50425000      -0.01503661       0.01403577       0.01351050
Si      13.57750000      10.86200000       8.14650000       0.70366932       0.43454020      -0.03850553
Si      14.93525000      12.21975000       9.50425000       0.16236878       0.25694868      -0.02920900
Si      13.57750000      13.57750000       5.43100000       0.04322304      -0.00125428      -0.00108998
Si      14.93525000      14.93525000       6.78875000       0.00227332       0.00805691      -0.02031205
Si      10.86200000      10.86200000      10.86200000      -0.17428732      -0.09748947      -0.09748947
Si      12.21975000      12.21975000      12.21975000       0.08074217       0.01080603       0.01080603
Si      10.86200000      13.57750000      13.57750000      -0.02853118       0.01634376       0.01634376
Si      12.21975000      14.93525000      14.93525000      -0.01284279       0.00059740       0.00059740
Si      13.57750000      10.86200000      13.57750000       0.02698415       0.02718071      -0.00594324
Si      14.93525000      12.21975000      14.93525000       0.00140973       0.01694975       0.01226658
Si      13.57750000      13.57750000      10.86200000       0.02698415      -0.00594324       0.02718071
Si      14.93525000      14.93525000      12.21975000       0.00140973       0.01226658       0.01694975
Si      10.86200000      10.86200000      16.29300000      -0.01088941       0.00252746       0.00984691
Si      12.21975000      12.21975000      17.65075000      -0.00261508       0.00103336       0.00418720
Si      10.86200000      13.57750000      19.00850000      -0.00001179      -0.00005151      -0.00013469
Si      12.21975000      14.93525000      20.36625000       0.00025326       0.00028989      -0.00004337
Si      13.57750000      10.86200000      19.00850000       0.00044003      -0.00026906       0.00090425
Si      14.93525000      12.21975000      20.36625000       0.00018954       0.00015253      -0.00102290
Si      13.57750000      13.57750000      16.29300000       0.00560387       0.00399749       0.00600779
Si      14.93525000      14.93525000      17.65075000      -0.00109474       0.00098914       0.00034294
Si      10.86200000      16.29300000       0.00000000      -0.00024017       0.00036969       0.00014157
Si      12.21975000      17.65075000       1.35775000      -0.00008715       0.00038249      -0.00040854
Si      10.86200000      19.00850000       2.71550000       0.00003416      -0.00036329      -0.00016807
Si      12.21975000      20.36625000       4.07325000      -0.00013275       0.00009349      -0.00020796
Si      13.57750000      16.29300000       2.71550000      -0.00274824      -0.00061719      -0.00015030
Si      14.93525000      17.65075000       4.07325000      -0.00005530       0.00026448      -0.00046293
Si      13.57750000      19.00850000       0.00000000      -0.00014579      -0.00012901       0.00042693
Si      14.93525000      20.36625000       1.35775000      -0.00008768      -0.00046742      -0.00017503
Si      10.86200000      16.29300000       5.43100000      -0.00611532       0.00615371      -0.00151104
Si      12.21975000      17.65075000       6.78875000       0.00123999      -0.00042746       0.00077120
Si      10.86200000      19.00850000       8.14650000       0.00015670      -0.00015611      -0.00013293
Si      12.21975000      20.36625000       9.50425000       0.00046739      -0.00038703       0.00003517
Si      13.57750000      16.29300000       8.14650000      -0.00845448       0.01613485      -0.00533520
Si      14.93525000      17.65075000       9.50425000       0.00072703       0.00109679      -0.00140609
Si      13.57750000      19.00850000       5.43100000       0.00008448      -0.00049165       0.00010694
Si      14.93525000      20.36625000       6.78875000       0.00022106       0.00135210       0.00020360
Si      10.86200000      16.29300000      10.86200000      -0.01088941       0.00984691       0.00252746
Si      12.21975000      17.65075000      12.21975000      -0.00261508       0.00418720       0.00103336
Si      10.86200000      19.00850000      13.57750000      -0.00001179      -0.00013469      -0.00005151
Si      12.21975000      20.36625000      14.93525000       0.00025326      -0.00004337       0.00028989
Si      13.57750000      16.29300000      13.57750000       0.00560387       0.00600779       0.00399749
Si      14.93525000      17.65075000      14.93525000      -0.00109474       0.00034294       0.00098914
Si      13.57750000      19.00850000      10.86200000       0.00044003       0.00090425      -0.00026906
Si      14.93525000      20.36625000      12.21975000       0.00018954      -0.00102290       0.00015253
Si      10.86200000      16.29300000      16.29300000       0.00216799       0.00013449       0.00013449
Si      12.21975000      17.65075000      17.65075000      -0.00033624       0.00019542       0.00019542
Si      10.86200000      19.00850000      19.00850000       0.00029172      -0.00001798      -0.00001798
Si      12.21975000      20.36625000      20.36625000      -0.00001258       0.00017982       0.00017982
Si      13.57750000      16.29300000      19.00850000       0.00024903      -0.00007164       0.00014803
Si      14.93525000      17.65075000      20.36625000      -0.00004723      -0.00029795       0.00009650
Si      13.57750000      19.00850000      16.29300000       0.00024903       0.00014803      -0.00007164
Si      14.93525000      20.36625000      17.65075000      -0.00004723       0.00009650      -0.00029795
Si      16.29300000       0.00000000       0.00000000      -0.00016278      -0.00006208      -0.00006208
Si      17.65075000       1.35775000       1.35775000      -0.00118850       0.00001231       0.00001231
Si      16.29300000       2.71550000       2.71550000       0.00058831      -0.00115919      -0.00115919
Si      17.65075000       4.07325000       4.07325000      -0.00263748       0.00000132       0.00000132
Si      19.00850000       0.00000000       2.71550000      -0.00000262      -0.00037501       0.00023291
Si      20.36625000       1.35775000       4.07325000       0.00036527      -0.00077746       0.00037804
Si      19.00850000       2.71550000       0.00000000      -0.00000262       0.00023291      -0.00037501
Si      20.36625000       4.07325000       1.35775000       0.00036527       0.00037804      -0.00077746
Si      16.29300000       0.00000000       5.43100000      -0.00010191      -0.00213832      -0.00130811
Si      17.65075000       1.35775000       6.78875000       0.00018710       0.00203832       0.00240158
Si      16.29300000       2.71550000       8.14650000       0.01701910      -0.02264876      -0.00879199
Si      17.65075000       4.07325000       9.50425000       0.03041088      -0.03198832       0.01369390
Si      19.00850000       0.00000000       8.14650000       0.00115501      -0.00076613       0.00076731
Si      20.36625000       1.35775000       9.50425000       0.00119295      -0.00119231      -0.00071506
Si      19.00850000       2.71550000       5.43100000      -0.00075740       0.00263236       0.00034320
Si      20.36625000       4.07325000       6.78875000      -0.00016428      -0.00101396       0.00271128
Si      16.29300000       0.00000000      10.86200000      -0.00084849       0.00233008      -0.00181715
Si      17.65075000       1.35775000      12.21975000       0.00015791      -0.00090243       0.00058314
Si      16.29300000       2.71550000      13.57750000      -0.00236150      -0.00139730       0.00433770
Si      17.65075000       4.07325000      14.93525000       0.00064003      -0.00140372       0.00048463
Si      19.00850000       0.00000000      13.57750000       0.00016006      -0.00049423      -0.00015611
Si      20.36625000       1.35775000      14.93525000       0.00009504      -0.00017024      -0.00038671
Si      19.00850000       2.71550000      10.86200000       0.00178935      -0.00046037      -0.00253769
Si      20.36625000       4.07325000      12.21975000      -0.00170397       0.00169816      -0.00049136
Si      16.29300000       0.00000000      16.29300000      -0.00020596      -0.00070735       0.00071646
Si      17.65075000       1.35775000      17.65075000      -0.00023741      -0.00024221       0.00031714
Si      16.29300000       2.71550000      19.00850000      -0.00004009      -0.00033803       0.00046546
Si      17.65075000       4.07325000      20.36625000      -0.00008127       0.00014981      -0.00011558
Si      19.00850000       0.00000000      19.00850000      -0.00000951      -0.00002620      -0.00002795
Si      20.36625000       1.35775000      20.36625000      -0.00000200      -0.00000062       0.00003469
Si      19.00850000       2.71550000      16.29300000      -0.00080404       0.00045338       0.00004470
Si      20.36625000       4.07325000      17.65075000       0.00007793       0.00035739       0.00030351
Si      16.29300000       5.43100000       0.00000000      -0.00010191      -0.00130811      -0.00213832
Si      17.65075000       6.78875000       1.35775000       0.00018710       0.00240158       0.00203832
Si      16.29300000       8.14650000       2.71550000       0.01701910      -0.00879199      -0.02264876
Si      17.65075000       9.50425000       4.07325000       0.03041088       0.01369390      -0.03198832
Si      19.00850000       5.43100000       2.71550000      -0.00075740       0.00034320       0.00263236
Si      20.36625000       6.78875000       4.07325000      -0.00016428       0.00271128      -0.00101396
Si      19.00850000       8.14650000       0.00000000       0.00115501       0.00076731      -0.00076613
Si      20.36625000       9.50425000       1.35775000       0.00119295      -0.00071506      -0.00119231
Si      16.29300000       5.43100000       5.43100000      -0.01337484       0.00558296       0.00558296
Si      17.65075000       6.78875000       6.78875000       0.02568602      -0.04045625      -0.04045625
Si      16.29300000       8.14650000       8.14650000      -0.08989665       0.02681678       0.02681678
Si      17.65075000       9.50425000       9.50425000      -0.10887354       0.00338064       0.00338064
Si      19.00850000       5.43100000       8.14650000       0.02894532      -0.02582479      -0.01966994
Si      20.36625000       6.78875000       9.50425000       0.02181916      -0.01330479       0.01014418
Si      19.00850000       8.14650000       5.43100000       0.02894532      -0.01966994      -0.02582479
Si      20.36625000       9.50425000       6.78875000       0.02181916       0.01014418      -0.01330479
Si      16.29300000       5.43100000      10.86200000       0.01126726      -0.02052983       0.05581197
Si      17.65075000       6.78875000      12.21975000       0.00485776      -0.00113958       0.00620048
Si      16.29300000       8.14650000      13.57750000       0.00114363      -0.01225673       0.00554583
Si      17.65075000       9.50425000      14.93525000       0.01436370      -0.00321233       0.01825365
Si      19.00850000       5.43100000      13.57750000       0.00063775       0.00157689       0.00140677
Si      20.36625000       6.78875000      14.93525000      -0.00001259       0.00018895      -0.00072516
Si      19.00850000       8.14650000      10.86200000       0.01857314      -0.00492908       0.02164654
Si      20.36625000       9.50425000      12.21975000       0.01453963      -0.00791747       0.01191708
Si      16.29300000       5.43100000      16.29300000      -0.00107166      -0.00271341      -0.00033802
Si      17.65075000       6.78875000      17.65075000       0.00034332      -0.00063103       0.00215614
Si      16.29300000       8.14650000      19.00850000       0.00001074      -0.00008486      -0.00078317
Si      17.65075000       9.50425000      20.36625000       0.00029666      -0.00023912      -0.00019046
Si      19.00850000       5.43100000      19.00850000      -0.00020806       0.00030759       0.00020627
Si      20.36625000       6.78875000      20.36625000      -0.00027359       0.00057336      -0.00010029
Si      19.00850000       8.14650000      16.29300000       0.00179092      -0.00009477      -0.00019381
Si      20.36625000       9.50425000      17.65075000       0.00077637       0.00020095       0.00069753
Si      16.29300000      10.86200000       0.00000000      -0.00084849      -0.00181715       0.00233008
Si      17.65075000      12.21975000       1.35775000       0.00015791       0.00058314      -0.00090243
Si      16.29300000      13.57750000       2.71550000      -0.00236150       0.00433770      -0.00139730
Si      17.65075000      14.93525000       4.07325000       0.00064003       0.00048463      -0.00140372
Si      19.00850000      10.86200000       2.71550000       0.00178935      -0.00253769      -0.00046037
Si      20.36625000      12.21975000       4.07325000      -0.00170397      -0.00049136       0.00169816
Si      19.00850000      13.57750000       0.00000000       0.00016006      -0.00015611      -0.00049423
Si      20.36625000      14.93525000       1.35775000       0.00009504      -0.00038671      -0.00017024
Si      16.29300000      10.86200000       5.43100000       0.01126726       0.05581197      -0.02052983
Si      17.65075000      12.21975000       6.78875000       0.00485776       0.00620048      -0.00113958
Si      16.29300000      13.57750000       8.14650000       0.00114363       0.00554583      -0.01225673
Si      17.65075000      14.93525000       9.50425000       0.01436370       0.01825365      -0.00321233
Si      19.00850000      10.86200000       8.14650000       0.01857314       0.02164654      -0.00492908
Si      20.36625000      12.21975000       9.50425000       0.01453963       0.01191708      -0.00791747
Si      19.00850000      13.57750000       5.43100000       0.00063775       0.00140677       0.00157689
Si      20.36625000      14.93525000       6.78875000      -0.00001259      -0.00072516       0.00018895
Si      16.29300000      10.86200000      10.86200000       0.01587334      -0.04244931      -0.04244931
Si      17.65075000      12.21975000      12.21975000       0.03286659       0.04506296       0.04506296
Si      16.29300000      13.57750000      13.57750000       0.00060156       0.00970596       0.00970596
Si      17.65075000      14.93525000      14.93525000      -0.00471048      -0.00153779      -0.00153779
Si      19.00850000      10.86200000      13.57750000       0.01825095       0.01371254       0.01537785
Si      20.36625000      12.21975000      14.93525000       0.00057577      -0.00253179       0.00103324
Si      19.00850000      13.57750000      10.86200000       0.01825095       0.01537785       0.01371254
Si      20.36625000      14.93525000      12.21975000       0.00057577       0.00103324      -0.00253179
Si      16.29300000      10.86200000      16.29300000       0.00454171       0.00766862       0.00831089
Si      17.65075000      12.21975000      17.65075000      -0.00134688      -0.00203811      -0.00158802
Si      16.29300000      13.57750000      19.00850000      -0.00011300       0.00038811       0.00069289
Si      17.65075000      14.93525000      20.36625000      -0.00008636       0.00001983      -0.00020914
Si      19.00850000      10.86200000      19.00850000       0.00023315      -0.00058066       0.00034183
Si      20.36625000      12.21975000      20.36625000      -0.00015736      -0.00033157      -0.00005141
Si      19.00850000      13.57750000      16.29300000       0.00024630      -0.00024247      -0.00046472
Si      20.36625000      14.93525000      17.65075000       0.00008117      -0.00018647       0.00029921
Si      16.29300000      16.29300000       0.00000000      -0.00020596       0.00071646      -0.00070735
Si      17.65075000      17.65075000       1.35775000      -0.00023741       0.00031714      -0.00024221
Si      16.29300000      19.00850000       2.71550000      -0.00004009       0.00046546      -0.00033803
Si      17.65075000      20.36625000       4.07325000      -0.00008127      -0.00011558       0.00014981
Si      19.00850000      16.29300000       2.71550000      -0.00080404       0.00004470       0.00045338
Si      20.36625000      17.65075000       4.07325000       0.00007793       0.00030351       0.00035739
Si      19.00850000      19.00850000       0.00000000      -0.00000951      -0.00002795      -0.00002620
Si      20.36625000      20.36625000       1.35775000      -0.00000200       0.00003469      -0.00000062
Si      16.29300000      16.29300000       5.43100000      -0.00107166      -0.00033802      -0.00271341
Si      17.65075000      17.65075000       6.78875000       0.00034332       0.00215614      -0.00063103
Si      16.29300000      19.00850000       8.14650000       0.00001074      -0.00078317      -0.00008486
Si      17.65075000      20.36625000       9.50425000       0.00029666      -0.00019046      -0.00023912
Si      19.00850000      16.29300000       8.14650000       0.00179092      -0.00019381      -0.00009477
Si      20.36625000      17.65075000       9.50425000       0.00077637       0.00069753       0.00020095
Si      19.00850000      19.00850000       5.43100000      -0.00020806       0.00020627       0.00030759
Si      20.36625000      20.36625000       6.78875000      -0.00027359      -0.00010029       0.00057336
Si      16.29300000      16.29300000      10.86200000       0.00454171       0.00831089       0.00766862
Si      17.65075000      17.65075000      12.21975000      -0.00134688      -0.00158802      -0.00203811
Si      16.29300000      19.00850000      13.57750000      -0.00011300       0.00069289       0.00038811
Si      17.65075000      20.36625000      14.93525000      -0.00008636      -0.00020914       0.00001983
Si      19.00850000      16.29300000      13.57750000       0.00024630      -0.00046472      -0.00024247
Si      20.36625000      17.65075000      14.93525000       0.00008117       0.00029921      -0.00018647
Si      19.00850000      19.00850000      10.86200000       0.00023315       0.00034183      -0.00058066
Si      20.36625000      20.36625000      12.21975000      -0.00015736      -0.00005141      -0.00033157
Si      16.29300000      16.29300000      16.29300000       0.00017397       0.00041375       0.00041375
Si      17.65075000      17.65075000      17.65075000      -0.00032980       0.00020154       0.00020154
Si      16.29300000      19.00850000      19.00850000       0.00004417      -0.00004746      -0.00004746
Si      17.65075000      20.36625000      20.36625000      -0.00002516      -0.00000120      -0.00000120
Si      19.00850000      16.29300000      19.00850000       0.00002579       0.00016366       0.00025172
Si      20.36625000      17.65075000      20.36625000       0.00002192       0.00002853      -0.00003275
Si      19.00850000      19.00850000      16.29300000       0.00002579       0.00025172       0.00016366
Si      20.36625000      20.36625000      17.65075000       0.00002192      -0.00003275       0.00002853
B       12.21975000       8.14650000       8.14650000      28.47890009      -0.40048350      -0.40048350
B       13.57750000       9.50425000       9.50425000      29.01188323       0.32527949       0.32527949
