514
Lattice="21.724 0.0 0.0 0.0 21.724 0.0 0.0 0.0 21.724" Properties=species:S:1:pos:R:3:forces:R:3 energy=-2764.982789642531 free_energy=-2764.982789642531 pbc="T T T"
Si       0.00201262      -0.00110012      -0.00110012       0.00000172       0.00000884       0.00000884
Si       1.36242383       1.35506332       1.35506332      -0.00000820       0.00000318       0.00000318
Si       0.00593849       2.71128435       2.71128435       0.00000493       0.00000374       0.00000374
Si       1.36283938       4.06940191       4.06940191       0.00001222      -0.00000480      -0.00000480
Si       2.71878904      -0.00080863       2.71504015      -0.00000850       0.00000839      -0.00000310
Si       4.07649366       1.35681122       4.07258120       0.00000439       0.00000573      -0.00000700
Si       2.71878904       2.71504015      -0.00080863      -0.00000850      -0.00000310       0.00000839
Si       4.07649366       4.07258120       1.35681122       0.00000439      -0.00000700       0.00000573
Si       0.00441892      -0.00489346       5.42982760       0.00000378      -0.00000177      -0.00000159
Si       1.36172873       1.35337931       6.78739808       0.00001255       0.00000114       0.00000253
Si       0.00699198       2.70883846       8.14727990       0.00000863       0.00000494      -0.00000134
Si       1.35951167       4.07051364       9.50588293       0.00000505      -0.00000385      -0.00000614
Si       2.71683703      -0.00205366       8.14741152       0.00000750      -0.00000265      -0.00000416
Si       4.07162793       1.35561595       9.50644902       0.00000072      -0.00000004       0.00000187
Si       2.71769950       2.71261146       5.42972960       0.00000244       0.00000186      -0.00000235
Si       4.07135620       4.07149476       6.78892598       0.00000230       0.00000958      -0.00000331
Si       0.00263278      -0.00215194      10.86577471       0.00000674      -0.00000384       0.00000083
Si       1.35788096       1.35702209      12.22332507      -0.00000408       0.00000078      -0.00000622
Si       0.00136060       2.71488271      13.58119690       0.00000669      -0.00000221      -0.00000070
Si       1.35718518       4.07245041      14.93939531      -0.00000060      -0.00000093      -0.00000331
Si       2.71558849       0.00208459      13.58175365       0.00000679       0.00000902       0.00000075
Si       4.07373167       1.35905973      14.93884691       0.00001502      -0.00000355       0.00000166
Si       2.71452038       2.71302338      10.86478572       0.00000074       0.00000559       0.00000174
Si       4.06775123       4.07011073      12.22556816       0.00001859      -0.00000017       0.00000174
Si      -0.00032966       0.00189875      16.29550749       0.00000324      -0.00000262      -0.00000125
Si       1.35896740       1.35803620      17.65220313       0.00001271       0.00000270      -0.00000588
Si       0.00126362       2.71546086      19.00744894       0.00000056      -0.00000154       0.00000500
Si       1.36101050       4.07145016      20.36449174       0.00000222      -0.00000027       0.00000554
Si       2.71692351       0.00192137      19.01064207       0.00001200      -0.00000867      -0.00000272
Si       4.07652459       1.35834398      20.36695175       0.00000517       0.00000728       0.00000327
Si       2.71628062       2.71605726      16.29603827       0.00000760      -0.00000294      -0.00000620
Si       4.07445461       4.07304222      17.65333243       0.00001001      -0.00000666      -0.00000729
Si       0.00441892       5.42982760      -0.00489346       0.00000378      -0.00000159      -0.00000177
Si       1.36172873       6.78739808       1.35337931       0.00001255       0.00000253       0.00000114
Si       0.00699198       8.14727990       2.70883846       0.00000863      -0.00000134       0.00000494
Si       1.35951167       9.50588293       4.07051364       0.00000505      -0.00000614      -0.00000385
Si       2.71769950       5.42972960       2.71261146       0.00000244      -0.00000235       0.00000186
Si       4.07135620       6.78892598       4.07149476       0.00000230      -0.00000331       0.00000958
Si       2.71683703       8.14741152      -0.00205366       0.00000750      -0.00000416      -0.00000265
Si       4.07162793       9.50644902       1.35561595       0.00000072       0.00000187      -0.00000004
Si       0.00794902       5.42694849       5.42694849       0.00000628       0.00000576       0.00000576
Si       1.36073121       6.78747413       6.78747413       0.00000480       0.00000485       0.00000485
Si       0.00487033       8.14607184       8.14607184      -0.00000689       0.00000813       0.00000813
Si       1.35751576       9.50684712       9.50684712      -0.00000267      -0.00001169      -0.00001169
Si       2.71482448       5.42955651       8.14774533      -0.00000643       0.00000736       0.00000371
Si       4.06655680       6.78892808       9.50938030      -0.00000713       0.00000260       0.00000454
Si       2.71482448       8.14774533       5.42955651      -0.00000643       0.00000371       0.00000736
Si       4.06655680       9.50938030       6.78892808      -0.00000713       0.00000454       0.00000260
Si       0.00446936       5.42881327      10.86530240      -0.00000355       0.00000254       0.00000867
Si       1.35719831       6.78917405      12.22456640       0.00000485      -0.00000343      -0.00000792
Si       0.00157261       8.14841488      13.58233237      -0.00000198      -0.00000055       0.00000087
Si       1.35522795       9.50711579      14.94236314       0.00000741      -0.00000429      -0.00001023
Si       2.71248627       5.43037348      13.58287798      -0.00000408       0.00000267       0.00000089
Si       4.06484771       6.78726186      14.94596483       0.00000734      -0.00001005       0.00000117
Si       2.71184152       8.14916874      10.86761069      -0.00001225      -0.00000061      -0.00000445
Si       4.06154422       9.50986364      12.23120162      -0.00001076      -0.00000117      -0.00000264
Si       0.00058412       5.43155110      16.29532092       0.00000425      -0.00000356       0.00000342
Si       1.35733970       6.78835598      17.65391189       0.00000686      -0.00000494      -0.00001050
Si       0.00135846       8.14840350      19.00772721      -0.00000276      -0.00001253      -0.00000486
Si       1.35806040       9.50570073      20.36660958       0.00000213      -0.00000158      -0.00000078
Si       2.71729689       5.43115148      19.00956599      -0.00000097      -0.00001253       0.00000197
Si       4.07502079       6.78876685      20.36702995      -0.00000101      -0.00000367      -0.00000414
Si       2.71170511       8.14887571      16.30042119       0.00000725      -0.00000003       0.00000303
Si       4.06880187       9.50597828      17.65936573      -0.00000273      -0.00000543       0.00000381
Si       0.00263278      10.86577471      -0.00215194       0.00000674       0.00000083      -0.00000384
Si       1.35788096      12.22332507       1.35702209      -0.00000408      -0.00000622       0.00000078
Si       0.00136060      13.58119690       2.71488271       0.00000669      -0.00000070      -0.00000221
Si       1.35718518      14.93939531       4.07245041      -0.00000060      -0.00000331      -0.00000093
Si       2.71452038      10.86478572       2.71302338       0.00000074       0.00000174       0.00000559
Si       4.06775123      12.22556816       4.07011073       0.00001859       0.00000174      -0.00000017
Si       2.71558849      13.58175365       0.00208459       0.00000679       0.00000075       0.00000902
Si       4.07373167      14.93884691       1.35905973       0.00001502       0.00000166      -0.00000355
Si       0.00446936      10.86530240       5.42881327      -0.00000355       0.00000867       0.00000254
Si       1.35719831      12.22456640       6.78917405       0.00000485      -0.00000792      -0.00000343
Si       0.00157261      13.58233237       8.14841488      -0.00000198       0.00000087      -0.00000055
Si       1.35522795      14.94236314       9.50711579       0.00000741      -0.00001023      -0.00000429
Si       2.71184152      10.86761069       8.14916874      -0.00001225      -0.00000445      -0.00000061
Si       4.06154422      12.23120162       9.50986364      -0.00001076      -0.00000264      -0.00000117
Si       2.71248627      13.58287798       5.43037348      -0.00000408       0.00000089       0.00000267
Si       4.06484771      14.94596483       6.78726186       0.00000734       0.00000117      -0.00001005
Si       0.00290835      10.86605787      10.86605787      -0.00000798       0.00001322       0.00001322
Si       1.35503225      12.22624412      12.22624412       0.00000336      -0.00000594      -0.00000594
Si      -0.00079787      13.58383490      13.58383490      -0.00000123       0.00000756       0.00000756
Si       1.35543546      14.94191635      14.94191635       0.00000447      -0.00000824      -0.00000824
Si       2.70867360      10.86919533      13.58751071      -0.00000236       0.00000203       0.00000510
Si       4.06502868      12.22728176      14.94672661       0.00000025       0.00001216      -0.00000335
Si       2.70867360      13.58751071      10.86919533      -0.00000236       0.00000510       0.00000203
Si       4.06502868      14.94672661      12.22728176       0.00000025      -0.00000335       0.00001216
Si      -0.00038795      10.86599411      16.29862771       0.00000089      -0.00000196       0.00000820
Si       1.35597814      12.22397952      17.65674043       0.00000620      -0.00000928      -0.00000945
Si      -0.00085254      13.58213089      19.01224125       0.00000168      -0.00000676       0.00000006
Si       1.35744531      14.93901632      20.36927724       0.00000692      -0.00000802       0.00000597
Si       2.71392673      10.86619662      19.01362356       0.00000306       0.00001166       0.00000819
Si       4.07265462      12.22327670      20.37049684       0.00000605       0.00000596      -0.00000893
Si       2.71089592      13.58536665      16.30210958      -0.00000562       0.00001245       0.00000734
Si       4.07131110      14.94148066      17.65822505       0.00001358      -0.00000018      -0.00001021
Si      -0.00032966      16.29550749       0.00189875       0.00000324      -0.00000125      -0.00000262
Si       1.35896740      17.65220313       1.35803620       0.00001271      -0.00000588       0.00000270
Si       0.00126362      19.00744894       2.71546086       0.00000056       0.00000500      -0.00000154
Si       1.36101050      20.36449174       4.07145016       0.00000222       0.00000554      -0.00000027
Si       2.71628062      16.29603827       2.71605726       0.00000760      -0.00000620      -0.00000294
Si       4.07445461      17.65333243       4.07304222       0.00001001      -0.00000729      -0.00000666
Si       2.71692351      19.01064207       0.00192137       0.00001200      -0.00000272      -0.00000867
Si       4.07652459      20.36695175       1.35834398       0.00000517       0.00000327       0.00000728
Si       0.00058412      16.29532092       5.43155110       0.00000425       0.00000342      -0.00000356
Si       1.35733970      17.65391189       6.78835598       0.00000686      -0.00001050      -0.00000494
Si       0.00135846      19.00772721       8.14840350      -0.00000276      -0.00000486      -0.00001253
Si       1.35806040      20.36660958       9.50570073       0.00000213      -0.00000078      -0.00000158
Si       2.71170511      16.30042119       8.14887571       0.00000725       0.00000303      -0.00000003
Si       4.06880187      17.65936573       9.50597828      -0.00000273       0.00000381      -0.00000543
Si       2.71729689      19.00956599       5.43115148      -0.00000097       0.00000197      -0.00001253
Si       4.07502079      20.36702995       6.78876685      -0.00000101      -0.00000414      -0.00000367
Si      -0.00038795      16.29862771      10.86599411       0.00000089       0.00000820      -0.00000196
Si       1.35597814      17.65674043      12.22397952       0.00000620      -0.00000945      -0.00000928
Si      -0.00085254      19.01224125      13.58213089       0.00000168       0.00000006      -0.00000676
Si       1.35744531      20.36927724      14.93901632       0.00000692       0.00000597      -0.00000802
Si       2.71089592      16.30210958      13.58536665      -0.00000562       0.00000734       0.00001245
Si       4.07131110      17.65822505      14.94148066       0.00001358      -0.00001021      -0.00000018
Si       2.71392673      19.01362356      10.86619662       0.00000306       0.00000819       0.00001166
Si       4.07265462      20.37049684      12.22327670       0.00000605      -0.00000893       0.00000596
Si      -0.00160376      16.29840809      16.29840809      -0.00000269      -0.00000466      -0.00000466
Si       1.35745084      17.65493226      17.65493226      -0.00001703       0.00000014       0.00000014
Si      -0.00049219      19.01103221      19.01103221      -0.00000928      -0.00000868      -0.00000868
Si       1.35978280      20.36694420      20.36694420      -0.00002196      -0.00000192      -0.00000192
Si       2.71445340      16.29841135      19.01383948       0.00000057       0.00000906       0.00000249
Si       4.07478330      17.65423466      20.36981689       0.00002407      -0.00000557      -0.00000870
Si       2.71445340      19.01383948      16.29841135       0.00000057       0.00000249       0.00000906
Si       4.07478330      20.36981689      17.65423466       0.00002407      -0.00000870      -0.00000557
Si       5.43369026       0.00156327       0.00156327       0.00001298      -0.00000592      -0.00000592
Si       6.79170552       1.35859230       1.35859230      -0.00000409      -0.00000087      -0.00000087
Si       5.43381175       2.71577498       2.71577498       0.00000420      -0.00000520      -0.00000520
Si       6.78999591       4.07459542       4.07459542      -0.00000042      -0.00000512      -0.00000512
Si       8.14810845      -0.00010886       2.71687338      -0.00000316       0.00000346      -0.00000552
Si       9.50427947       1.35760484       4.07429541      -0.00000380      -0.00000816      -0.00000123
Si       8.14810845       2.71687338      -0.00010886      -0.00000316      -0.00000552       0.00000346
Si       9.50427947       4.07429541       1.35760484      -0.00000380      -0.00000123      -0.00000816
Si       5.43345134       0.00004179       5.43137052      -0.00000224       0.00000567       0.00000032
Si       6.78980355       1.35828821       6.78954581       0.00001038       0.00000523      -0.00000577
Si       5.42652987       2.71153802       8.14684104      -0.00000399      -0.00000073      -0.00000402
Si       6.77713395       4.06794962       9.50743099      -0.00000484      -0.00000609       0.00000802
Si       8.14818627       0.00165919       8.14744475       0.00000089       0.00000178       0.00000298
Si       9.50573216       1.36087604       9.50423940       0.00000698      -0.00000943       0.00000104
Si       8.14853477       2.71861897       5.43535658      -0.00000141      -0.00000352      -0.00000269
Si       9.50505004       4.07846269       6.79854223      -0.00000234      -0.00001625       0.00000589
Si       5.43150870       0.00165641      10.86452997      -0.00000351      -0.00000168       0.00000458
Si       6.78923208       1.36011730      12.22167920      -0.00000460       0.00000849       0.00000088
Si       5.43073573       2.71586905      13.58098606       0.00000559      -0.00000115       0.00000292
Si       6.78875330       4.07417904      14.93817716      -0.00000341      -0.00000129      -0.00000066
Si       8.14820094       0.00414403      13.57912963      -0.00000107       0.00001073      -0.00000339
Si       9.50763955       1.36337247      14.93371540      -0.00000097       0.00000401      -0.00000500
Si       8.14638916       2.71798482      10.86317142       0.00000172       0.00000085      -0.00000143
Si       9.50820835       4.08016747      12.21451686       0.00000055       0.00000300       0.00000456
Si       5.43225119       0.00363726      16.29665342       0.00000427      -0.00000607       0.00000053
Si       6.79171708       1.36081718      17.65217595       0.00000309      -0.00000468      -0.00000733
Si       5.43355304       2.71676758      19.00993325      -0.00000319      -0.00000493       0.00000435
Si       6.79146810       4.07472149      20.36626675      -0.00000047      -0.00000589       0.00000240
Si       8.14834737       0.00332588      19.01040889       0.00000287      -0.00001128      -0.00000012
Si       9.50686792       1.36032966      20.36593259       0.00000351       0.00000201      -0.00000083
Si       8.14910865       2.71832571      16.29339065      -0.00000777       0.00001006      -0.00000357
Si       9.50739855       4.07767456      17.64823860       0.00000077       0.00000790      -0.00000224
Si       5.43345134       5.43137052       0.00004179      -0.00000224       0.00000032       0.00000567
Si       6.78980355       6.78954581       1.35828821       0.00001038      -0.00000577       0.00000523
Si       5.42652987       8.14684104       2.71153802      -0.00000399      -0.00000402      -0.00000073
Si       6.77713395       9.50743099       4.06794962      -0.00000484       0.00000802      -0.00000609
Si       8.14853477       5.43535658       2.71861897      -0.00000141      -0.00000269      -0.00000352
Si       9.50505004       6.79854223       4.07846269      -0.00000234       0.00000589      -0.00001625
Si       8.14818627       8.14744475       0.00165919       0.00000089       0.00000298       0.00000178
Si       9.50573216       9.50423940       1.36087604       0.00000698       0.00000104      -0.00000943
Si       5.42672869       5.43010603       5.43010603       0.00000811      -0.00000010      -0.00000010
Si       6.77427925       6.79188253       6.79188253      -0.00001456      -0.00000371      -0.00000371
Si       5.41850985       8.15243523       8.15243523       0.00000877       0.00000636       0.00000636
Si       6.75998441       9.51978218       9.51978218      -0.00000629       0.00000305       0.00000305
Si       8.12535150       5.42689481       8.14811873       0.00001212       0.00000316       0.00000000
Si       9.41133555       6.76764733       9.56331485      -0.00002214      -0.00001807      -0.00000127
Si       8.12535150       8.14811873       5.42689481       0.00001212       0.00000000       0.00000316
Si       9.41133555       9.56331485       6.76764733      -0.00002214      -0.00000127      -0.00001807
Si       5.42011708       5.42793191      10.86877355      -0.00000169       0.00000226      -0.00000538
Si       6.76016283       6.78564749      12.24415378      -0.00001956      -0.00000253       0.00000364
Si       5.41324822       8.15142288      13.59521614      -0.00000957       0.00000159      -0.00000825
Si       6.77011091       9.50755989      14.95639487      -0.00000209      -0.00001428       0.00000892
Si       8.14397781       5.43123311      13.57923272      -0.00000768       0.00001175      -0.00000128
Si       9.50466737       6.79406979      14.93020944      -0.00000566       0.00000663       0.00000787
Si       8.09445999       8.15672176      10.89915667       0.00000749       0.00000682       0.00000474
Si       9.45137479       9.51730101      12.26449795      -0.00001360       0.00001166       0.00001193
Si       5.43065134       5.43133270      16.29701113      -0.00000457      -0.00000300       0.00000583
Si       6.78916776       6.78975601      17.65332243       0.00000099       0.00000250      -0.00000087
Si       5.43171501       8.14787515      19.01155093      -0.00000693       0.00000092       0.00001043
Si       6.78944378       9.50571559      20.36921062       0.00000507      -0.00000860       0.00000091
Si       8.14897074       5.43271846      19.00848948      -0.00000929       0.00000769       0.00001341
Si       9.50606328       6.79033809      20.36657670       0.00000243       0.00000066      -0.00000063
Si       8.14520247       8.14840742      16.29574064      -0.00000572       0.00000081      -0.00000245
Si       9.50338282       9.50718338      17.65272894       0.00000434      -0.00000512       0.00000375
Si       5.43150870      10.86452997       0.00165641      -0.00000351       0.00000458      -0.00000168
Si       6.78923208      12.22167920       1.36011730      -0.00000460       0.00000088       0.00000849
Si       5.43073573      13.58098606       2.71586905       0.00000559       0.00000292      -0.00000115
Si       6.78875330      14.93817716       4.07417904      -0.00000341      -0.00000066      -0.00000129
Si       8.14638916      10.86317142       2.71798482       0.00000172      -0.00000143       0.00000085
Si       9.50820835      12.21451686       4.08016747       0.00000055       0.00000456       0.00000300
Si       8.14820094      13.57912963       0.00414403      -0.00000107      -0.00000339       0.00001073
Si       9.50763955      14.93371540       1.36337247      -0.00000097      -0.00000500       0.00000401
Si       5.42011708      10.86877355       5.42793191      -0.00000169      -0.00000538       0.00000226
Si       6.76016283      12.24415378       6.78564749      -0.00001956       0.00000364      -0.00000253
Si       5.41324822      13.59521614       8.15142288      -0.00000957      -0.00000825       0.00000159
Si       6.77011091      14.95639487       9.50755989      -0.00000209       0.00000892      -0.00001428
Si       8.09445999      10.89915667       8.15672176       0.00000749       0.00000474       0.00000682
Si       9.45137479      12.26449795       9.51730101      -0.00001360       0.00001193       0.00001166
Si       8.14397781      13.57923272       5.43123311      -0.00000768      -0.00000128       0.00001175
Si       9.50466737      14.93020944       6.79406979      -0.00000566       0.00000787       0.00000663
Si       5.41109619      10.87865665      10.87865665       0.00001113      -0.00000512      -0.00000512
Si       6.76766432      12.23822605      12.23822605      -0.00001571       0.00001148       0.00001148
Si       5.41662988      13.59337058      13.59337058       0.00001286       0.00000372       0.00000372
Si       6.78236523      14.94690759      14.94690759       0.00000088       0.00000064       0.00000064
Si       8.11233596      10.87974307      13.61323168      -0.00000098      -0.00000821      -0.00000021
Si       9.49365470      12.23474188      14.95305671      -0.00000704       0.00000074       0.00001220
Si       8.11233596      13.61323168      10.87974307      -0.00000098      -0.00000021      -0.00000821
Si       9.49365470      14.95305671      12.23474188      -0.00000704       0.00001220       0.00000074
Si       5.42048461      10.86992204      16.30774856      -0.00001196       0.00001021       0.00001211
Si       6.78470062      12.22544085      17.66089229      -0.00000026       0.00000366       0.00000705
Si       5.42899339      13.58362359      19.01608816       0.00000458       0.00001261       0.00000778
Si       6.78990597      14.93887173      20.37213672       0.00000638       0.00000126      -0.00000098
Si       8.14618015      10.86462315      19.01251318      -0.00000705      -0.00000067       0.00001408
Si       9.50531808      12.22096677      20.37010739       0.00001765      -0.00001659       0.00000110
Si       8.13857053      13.58973979      16.30756716      -0.00000875       0.00000293      -0.00000566
Si       9.50353710      14.94272194      17.66018483       0.00000144      -0.00000691      -0.00000094
Si       5.43225119      16.29665342       0.00363726       0.00000427       0.00000053      -0.00000607
Si       6.79171708      17.65217595       1.36081718       0.00000309      -0.00000733      -0.00000468
Si       5.43355304      19.00993325       2.71676758      -0.00000319       0.00000435      -0.00000493
Si       6.79146810      20.36626675       4.07472149      -0.00000047       0.00000240      -0.00000589
Si       8.14910865      16.29339065       2.71832571      -0.00000777      -0.00000357       0.00001006
Si       9.50739855      17.64823860       4.07767456       0.00000077      -0.00000224       0.00000790
Si       8.14834737      19.01040889       0.00332588       0.00000287      -0.00000012      -0.00001128
Si       9.50686792      20.36593259       1.36032966       0.00000351      -0.00000083       0.00000201
Si       5.43065134      16.29701113       5.43133270      -0.00000457       0.00000583      -0.00000300
Si       6.78916776      17.65332243       6.78975601       0.00000099      -0.00000087       0.00000250
Si       5.43171501      19.01155093       8.14787515      -0.00000693       0.00001043       0.00000092
Si       6.78944378      20.36921062       9.50571559       0.00000507       0.00000091      -0.00000860
Si       8.14520247      16.29574064       8.14840742      -0.00000572      -0.00000245       0.00000081
Si       9.50338282      17.65272894       9.50718338       0.00000434       0.00000375      -0.00000512
Si       8.14897074      19.00848948       5.43271846      -0.00000929       0.00001341       0.00000769
Si       9.50606328      20.36657670       6.79033809       0.00000243      -0.00000063       0.00000066
Si       5.42048461      16.30774856      10.86992204      -0.00001196       0.00001211       0.00001021
Si       6.78470062      17.66089229      12.22544085      -0.00000026       0.00000705       0.00000366
Si       5.42899339      19.01608816      13.58362359       0.00000458       0.00000778       0.00001261
Si       6.78990597      20.37213672      14.93887173       0.00000638      -0.00000098       0.00000126
Si       8.13857053      16.30756716      13.58973979      -0.00000875      -0.00000566       0.00000293
Si       9.50353710      17.66018483      14.94272194       0.00000144      -0.00000094      -0.00000691
Si       8.14618015      19.01251318      10.86462315      -0.00000705       0.00001408      -0.00000067
Si       9.50531808      20.37010739      12.22096677       0.00001765       0.00000110      -0.00001659
Si       5.42686673      16.30262411      16.30262411       0.00000336       0.00000910       0.00000910
Si       6.78929510      17.65724377      17.65724377      -0.00000705       0.00000500       0.00000500
Si       5.43172723      19.01327487      19.01327487       0.00000462       0.00000180       0.00000180
Si       6.79181487      20.36905576      20.36905576       0.00000607      -0.00000904      -0.00000904
Si       8.14601192      16.29881881      19.01577702       0.00000265       0.00000667       0.00000176
Si       9.50668953      17.65335208      20.37158612       0.00001019      -0.00000533       0.00000233
Si       8.14601192      19.01577702      16.29881881       0.00000265       0.00000176       0.00000667
Si       9.50668953      20.37158612      17.65335208       0.00001019       0.00000233      -0.00000533
Si      10.86214084      -0.00164577      -0.00164577      -0.00000393       0.00000953       0.00000953
Si      12.22256198       1.35184899       1.35184899      -0.00000246       0.00000019       0.00000019
Si      10.86144348       2.70594997       2.70594997      -0.00000312       0.00000524       0.00000524
Si      12.21983846       4.05710026       4.05710026       0.00000967      -0.00000110      -0.00000110
Si      13.57896873      -0.00784649       2.71027896       0.00000469      -0.00000237       0.00000011
Si      14.94585144       1.34326755       4.06027210      -0.00000684       0.00000336      -0.00000552
Si      13.57896873       2.71027896      -0.00784649       0.00000469       0.00000011      -0.00000237
Si      14.94585144       4.06027210       1.34326755      -0.00000684      -0.00000552       0.00000336
Si      10.86324420      -0.00169465       5.43033182       0.00000127       0.00000143       0.00001043
Si      12.22518579       1.35422525       6.78390208       0.00000380       0.00000023      -0.00000567
Si      10.86825926       2.71630302       8.14472222       0.00000224      -0.00000194      -0.00000268
Si      12.23490940       4.08325341       9.48548565       0.00000593      -0.00000665       0.00000666
Si      13.58207596      -0.00178760       8.14567409       0.00000434      -0.00000278       0.00000614
Si      14.94277723       1.35238315       9.50572579       0.00000144      -0.00000207       0.00000503
Si      13.58942235       2.69742356       5.41399392      -0.00000378      -0.00000298       0.00000686
Si      14.99195978       4.02097388       6.76376374       0.00000921       0.00000078       0.00000048
Si      10.86343654       0.00219572      10.86138166      -0.00000407       0.00000245       0.00000507
Si      12.22155887       1.36170039      12.21664847      -0.00000191      -0.00000476      -0.00000066
Si      10.86309244       2.72177463      13.57253521      -0.00000517       0.00000503      -0.00000477
Si      12.22173771       4.08791537      14.92094889      -0.00000592       0.00000290      -0.00000157
Si      13.57760480       0.00315044      13.57619677       0.00001246       0.00000272       0.00000259
Si      14.93437078       1.36161438      14.93328140      -0.00000004      -0.00000107       0.00000328
Si      13.57911639       2.71855261      10.85678024       0.00000295      -0.00000673      -0.00000178
Si      14.93424374       4.07731270      12.21765259       0.00000845       0.00000221       0.00000083
Si      10.86330966       0.00471076      16.29247747      -0.00001080       0.00000580       0.00000109
Si      12.22169164       1.36340285      17.64669280      -0.00000630      -0.00000525       0.00000239
Si      10.86352427       2.71836746      19.00585532      -0.00001104       0.00001664       0.00000713
Si      12.22170036       4.07415440      20.36301026      -0.00000617      -0.00000388      -0.00000027
Si      13.57685532       0.00177828      19.00558873       0.00001671       0.00000195      -0.00000163
Si      14.93757320       1.35565243      20.36081459      -0.00000733       0.00000399      -0.00000799
Si      13.57529879       2.72441858      16.28439563       0.00000025       0.00001111      -0.00000084
Si      14.93458191       4.07734574      17.64464926       0.00000050      -0.00000851      -0.00000548
Si      10.86324420       5.43033182      -0.00169465       0.00000127       0.00001043       0.00000143
Si      12.22518579       6.78390208       1.35422525       0.00000380      -0.00000567       0.00000023
Si      10.86825926       8.14472222       2.71630302       0.00000224      -0.00000268      -0.00000194
Si      12.23490940       9.48548565       4.08325341       0.00000593       0.00000666      -0.00000665
Si      13.58942235       5.41399392       2.69742356      -0.00000378       0.00000686      -0.00000298
Si      14.99195978       6.76376374       4.02097388       0.00000921       0.00000048       0.00000078
Si      13.58207596       8.14567409      -0.00178760       0.00000434       0.00000614      -0.00000278
Si      14.94277723       9.50572579       1.35238315       0.00000144       0.00000503      -0.00000207
Si      10.84733371       5.40742249       5.40742249       0.00001882      -0.00000234      -0.00000234
Si      12.44569173       6.60232678       6.60232678      -0.00001461      -0.00001065      -0.00001065
Si      10.54862406       8.30793134       8.30793134       0.00006744       0.00000233       0.00000233
Si      11.91830220       9.66026370       9.66026370      -0.00000264       0.00001058       0.00001058
Si      13.67017677       5.34479845       8.12744497       0.00000781      -0.00000414      -0.00000377
Si      14.97890881       6.77337684       9.47434842       0.00000499       0.00000494      -0.00000297
Si      13.67017677       8.12744497       5.34479845       0.00000781      -0.00000377      -0.00000414
Si      14.97890881       9.47434842       6.77337684       0.00000499      -0.00000297       0.00000494
Si      10.86337008       5.44056867      10.84031576      -0.00000331      -0.00001795       0.00000731
Si      12.22173541       6.82748786      12.15436548      -0.00000156      -0.00000977       0.00001260
Si      10.86058434       8.15495554      13.56430079      -0.00000675       0.00001361      -0.00000256
Si      12.21536689       9.51208576      14.93152127      -0.00000154       0.00000336      -0.00000865
Si      13.56787115       5.45684215      13.54917415      -0.00001371       0.00001400      -0.00000611
Si      14.93071364       6.79683968      14.92419765       0.00000414       0.00000303       0.00000944
Si      13.59291785       8.21863707      10.80093293      -0.00002085      -0.00001663      -0.00000187
Si      14.94433895       9.52188481      12.20820166       0.00000777       0.00002828       0.00000640
Si      10.86280255       5.43680761      16.28757636      -0.00001321       0.00000551       0.00000181
Si      12.22017529       6.79306132      17.64714341      -0.00000682       0.00000543       0.00000235
Si      10.86307750       8.14863089      19.00836191      -0.00000189       0.00000454       0.00000695
Si      12.22159626       9.50452639      20.36719040      -0.00000475      -0.00000211      -0.00000375
Si      13.57786441       5.43363121      19.00443491       0.00000605       0.00001178       0.00000039
Si      14.93831093       6.78841242      20.36225571       0.00000690      -0.00000391      -0.00001113
Si      13.57522511       8.15262583      16.28785199      -0.00001046       0.00000237       0.00001375
Si      14.93471119       9.50664310      17.64890640       0.00000470      -0.00000537       0.00000708
Si      10.86343654      10.86138166       0.00219572      -0.00000407       0.00000507       0.00000245
Si      12.22155887      12.21664847       1.36170039      -0.00000191      -0.00000066      -0.00000476
Si      10.86309244      13.57253521       2.72177463      -0.00000517      -0.00000477       0.00000503
Si      12.22173771      14.92094889       4.08791537      -0.00000592      -0.00000157       0.00000290
Si      13.57911639      10.85678024       2.71855261       0.00000295      -0.00000178      -0.00000673
Si      14.93424374      12.21765259       4.07731270       0.00000845       0.00000083       0.00000221
Si      13.57760480      13.57619677       0.00315044       0.00001246       0.00000259       0.00000272
Si      14.93437078      14.93328140       1.36161438      -0.00000004       0.00000328      -0.00000107
Si      10.86337008      10.84031576       5.44056867      -0.00000331       0.00000731      -0.00001795
Si      12.22173541      12.15436548       6.82748786      -0.00000156       0.00001260      -0.00000977
Si      10.86058434      13.56430079       8.15495554      -0.00000675      -0.00000256       0.00001361
Si      12.21536689      14.93152127       9.51208576      -0.00000154      -0.00000865       0.00000336
Si      13.59291785      10.80093293       8.21863707      -0.00002085      -0.00000187      -0.00001663
Si      14.94433895      12.20820166       9.52188481       0.00000777       0.00000640       0.00002828
Si      13.56787115      13.54917415       5.45684215      -0.00001371      -0.00000611       0.00001400
Si      14.93071364      14.92419765       6.79683968       0.00000414       0.00000944       0.00000303
Si      10.72929129      11.01436975      11.01436975       0.00000667       0.00000454       0.00000454
Si      12.22512961      12.26947917      12.26947917      -0.00001247       0.00000164       0.00000164
Si      10.85249433      13.61004192      13.61004192      -0.00000060       0.00000133       0.00000133
Si      12.22176989      14.95321767      14.95321767       0.00001200       0.00000268       0.00000268
Si      13.58417555      10.86911830      13.58173140      -0.00000815      -0.00000352      -0.00000272
Si      14.93937536      12.22651930      14.94120890       0.00000122      -0.00000168       0.00000358
Si      13.58417555      13.58173140      10.86911830      -0.00000815      -0.00000272      -0.00000352
Si      14.93937536      14.94120890      12.22651930       0.00000122       0.00000358      -0.00000168
Si      10.85851957      10.86851216      16.29559825      -0.00001099       0.00000166       0.00000208
Si      12.21956710      12.22317716      17.65354173       0.00000230       0.00000346      -0.00000364
Si      10.86208569      13.58011413      19.01290813      -0.00000003      -0.00000265       0.00000593
Si      12.22069962      14.93588656      20.37048103      -0.00000043      -0.00000264      -0.00000564
Si      13.57773364      10.86339812      19.00888436       0.00000970      -0.00000125       0.00000161
Si      14.93547339      12.22118363      20.36667242       0.00000679      -0.00000291      -0.00000702
Si      13.57886305      13.58314589      16.29918110       0.00000638      -0.00000860      -0.00000108
Si      14.93656627      14.93919009      17.65538684      -0.00000546      -0.00000437       0.00000088
Si      10.86330966      16.29247747       0.00471076      -0.00001080       0.00000109       0.00000580
Si      12.22169164      17.64669280       1.36340285      -0.00000630       0.00000239      -0.00000525
Si      10.86352427      19.00585532       2.71836746      -0.00001104       0.00000713       0.00001664
Si      12.22170036      20.36301026       4.07415440      -0.00000617      -0.00000027      -0.00000388
Si      13.57529879      16.28439563       2.72441858       0.00000025      -0.00000084       0.00001111
Si      14.93458191      17.64464926       4.07734574       0.00000050      -0.00000548      -0.00000851
Si      13.57685532      19.00558873       0.00177828       0.00001671      -0.00000163       0.00000195
Si      14.93757320      20.36081459       1.35565243      -0.00000733      -0.00000799       0.00000399
Si      10.86280255      16.28757636       5.43680761      -0.00001321       0.00000181       0.00000551
Si      12.22017529      17.64714341       6.79306132      -0.00000682       0.00000235       0.00000543
Si      10.86307750      19.00836191       8.14863089      -0.00000189       0.00000695       0.00000454
Si      12.22159626      20.36719040       9.50452639      -0.00000475      -0.00000375      -0.00000211
Si      13.57522511      16.28785199       8.15262583      -0.00001046       0.00001375       0.00000237
Si      14.93471119      17.64890640       9.50664310       0.00000470       0.00000708      -0.00000537
Si      13.57786441      19.00443491       5.43363121       0.00000605       0.00000039       0.00001178
Si      14.93831093      20.36225571       6.78841242       0.00000690      -0.00001113      -0.00000391
Si      10.85851957      16.29559825      10.86851216      -0.00001099       0.00000208       0.00000166
Si      12.21956710      17.65354173      12.22317716       0.00000230      -0.00000364       0.00000346
Si      10.86208569      19.01290813      13.58011413      -0.00000003       0.00000593      -0.00000265
Si      12.22069962      20.37048103      14.93588656      -0.00000043      -0.00000564      -0.00000264
Si      13.57886305      16.29918110      13.58314589       0.00000638      -0.00000108      -0.00000860
Si      14.93656627      17.65538684      14.93919009      -0.00000546       0.00000088      -0.00000437
Si      13.57773364      19.00888436      10.86339812       0.00000970       0.00000161      -0.00000125
Si      14.93547339      20.36667242      12.22118363       0.00000679      -0.00000702      -0.00000291
Si      10.85974442      16.30458759      16.30458759      -0.00000102      -0.00000216      -0.00000216
Si      12.22158360      17.65712925      17.65712925       0.00000265       0.00000130       0.00000130
Si      10.86226361      19.01226441      19.01226441      -0.00000893      -0.00000035      -0.00000035
Si      12.22188546      20.36698162      20.36698162       0.00000427       0.00000049       0.00000049
Si      13.57742626      16.29492942      19.01258364       0.00001098       0.00000014       0.00000535
Si      14.93572409      17.65079944      20.36866868      -0.00001205      -0.00000216       0.00000498
Si      13.57742626      19.01258364      16.29492942       0.00001098       0.00000535       0.00000014
Si      14.93572409      20.36866868      17.65079944      -0.00001205       0.00000498      -0.00000216
Si      16.29371985      -0.00354799      -0.00354799       0.00000385       0.00000780       0.00000780
Si      17.65772920       1.35019185       1.35019185       0.00000711       0.00000529       0.00000529
Si      16.30320244       2.70563257       2.70563257       0.00000891       0.00000051       0.00000051
Si      17.66971191       4.05971346       4.05971346      -0.00001322       0.00000487       0.00000487
Si      19.01235241      -0.00610829       2.71224473      -0.00000405       0.00001199      -0.00001163
Si      20.37463083       1.34975953       4.06720206       0.00000122       0.00000348      -0.00001086
Si      19.01235241       2.71224473      -0.00610829      -0.00000405      -0.00001163       0.00001199
Si      20.37463083       4.06720206       1.34975953       0.00000122      -0.00001086       0.00000348
Si      16.29967738      -0.00980968       5.42718484      -0.00000186      -0.00000261      -0.00000030
Si      17.67016947       1.33946494       6.78172825       0.00000120      -0.00000953      -0.00000744
Si      16.32563597       2.68668584       8.14696108      -0.00000170      -0.00000108      -0.00000083
Si      17.67071935       4.06092212       9.50547536       0.00000280       0.00000172       0.00000651
Si      19.01828712      -0.00999365       8.14849730       0.00000751      -0.00000477      -0.00001047
Si      20.37300133       1.35187992       9.50553801       0.00000453      -0.00000248      -0.00000449
Si      19.02178882       2.70504252       5.42490589      -0.00000769       0.00000576      -0.00000714
Si      20.37984053       4.06232451       6.78311689      -0.00000341      -0.00000514       0.00000237
Si      16.29663929      -0.00305246      10.86500567       0.00000683       0.00000097       0.00001194
Si      17.65244892       1.35733544      12.22223502      -0.00000600      -0.00001255       0.00000871
Si      16.29198496       2.71843950      13.57624277       0.00000137      -0.00000497       0.00001408
Si      17.65021026       4.07624075      14.93355341      -0.00000709      -0.00001580       0.00000783
Si      19.00878879       0.00062819      13.58022143       0.00000978      -0.00000027       0.00000205
Si      20.36605257       1.35853621      14.93723645       0.00000058       0.00000502      -0.00000977
Si      19.01942727       2.70818446      10.86711654      -0.00000501      -0.00000049       0.00001327
Si      20.37048386       4.07269049      12.22360277       0.00000124      -0.00001250       0.00000333
Si      16.29143794       0.00280820      16.29191598      -0.00000718       0.00000172       0.00001377
Si      17.65065350       1.35856884      17.64845442      -0.00000801       0.00000242      -0.00000200
Si      16.29224243       2.71654137      19.00255732      -0.00000782      -0.00000292      -0.00000034
Si      17.65469910       4.07004610      20.35859463      -0.00000065      -0.00000702      -0.00000416
Si      19.00797136       0.00041022      19.00727437       0.00000180      -0.00000131       0.00000588
Si      20.36914352       1.35539834      20.36308961       0.00000117      -0.00000397       0.00001494
Si      19.00736375       2.71740196      16.29180343      -0.00000125       0.00000597      -0.00000009
Si      20.36680818       4.07275629      17.64952309       0.00000369       0.00000127      -0.00000453
Si      16.29967738       5.42718484      -0.00980968      -0.00000186      -0.00000030      -0.00000261
Si      17.67016947       6.78172825       1.33946494       0.00000120      -0.00000744      -0.00000953
Si      16.32563597       8.14696108       2.68668584      -0.00000170      -0.00000083      -0.00000108
Si      17.67071935       9.50547536       4.06092212       0.00000280       0.00000651       0.00000172
Si      19.02178882       5.42490589       2.70504252      -0.00000769      -0.00000714       0.00000576
Si      20.37984053       6.78311689       4.06232451      -0.00000341       0.00000237      -0.00000514
Si      19.01828712       8.14849730      -0.00999365       0.00000751      -0.00001047      -0.00000477
Si      20.37300133       9.50553801       1.35187992       0.00000453      -0.00000449      -0.00000248
Si      16.31808090       5.41609629       5.41609629       0.00000984      -0.00000698      -0.00000698
Si      17.68394586       6.76742981       6.76742981      -0.00000853       0.00000410       0.00000410
Si      16.34685692       8.11953643       8.11953643      -0.00001403      -0.00000911      -0.00000911
Si      17.66140127       9.49679852       9.49679852       0.00001770      -0.00000576      -0.00000576
Si      19.02946451       5.41695604       8.14276774      -0.00000636      -0.00000149       0.00000716
Si      20.37533390       6.78505509       9.50501733      -0.00000777      -0.00000004       0.00000303
Si      19.02946451       8.14276774       5.41695604      -0.00000636       0.00000716      -0.00000149
Si      20.37533390       9.50501733       6.78505509      -0.00000777       0.00000303      -0.00000004
Si      16.31736075       5.42409100      10.87240787       0.00000200      -0.00000764      -0.00000037
Si      17.66225293       6.79616452      12.22486369      -0.00000209      -0.00000077       0.00000075
Si      16.29260761       8.15598512      13.57191803      -0.00000527      -0.00000846      -0.00000122
Si      17.65202195       9.50855993      14.93589847       0.00000084      -0.00000731      -0.00000698
Si      19.01348383       5.43290934      13.58083684      -0.00001231      -0.00001336       0.00001339
Si      20.36825546       6.79062642      14.93870034       0.00000420      -0.00000902      -0.00000316
Si      19.02035770       8.14809422      10.86334489      -0.00000872      -0.00000300       0.00000405
Si      20.37155645       9.50767597      12.22408253      -0.00000622       0.00000129      -0.00000040
Si      16.28903785       5.43685670      16.28481325       0.00000010      -0.00001563      -0.00000116
Si      17.64944717       6.79020115      17.64644086       0.00000215      -0.00001410       0.00000605
Si      16.29372387       8.14832276      19.00520049       0.00000514      -0.00000876      -0.00000068
Si      17.65302758       9.50561042      20.36293573       0.00000812      -0.00000478      -0.00000879
Si      19.00931053       5.43170312      19.00338722       0.00001560      -0.00000852      -0.00000077
Si      20.37068768       6.78716055      20.36029386      -0.00000351      -0.00001134      -0.00000470
Si      19.00877319       8.14925429      16.29299536      -0.00000824      -0.00000031      -0.00000232
Si      20.36609558       9.50624542      17.65213029      -0.00000182      -0.00000106      -0.00000085
Si      16.29663929      10.86500567      -0.00305246       0.00000683       0.00001194       0.00000097
Si      17.65244892      12.22223502       1.35733544      -0.00000600       0.00000871      -0.00001255
Si      16.29198496      13.57624277       2.71843950       0.00000137       0.00001408      -0.00000497
Si      17.65021026      14.93355341       4.07624075      -0.00000709       0.00000783      -0.00001580
Si      19.01942727      10.86711654       2.70818446      -0.00000501       0.00001327      -0.00000049
Si      20.37048386      12.22360277       4.07269049       0.00000124       0.00000333      -0.00001250
Si      19.00878879      13.58022143       0.00062819       0.00000978       0.00000205      -0.00000027
Si      20.36605257      14.93723645       1.35853621       0.00000058      -0.00000977       0.00000502
Si      16.31736075      10.87240787       5.42409100       0.00000200      -0.00000037      -0.00000764
Si      17.66225293      12.22486369       6.79616452      -0.00000209       0.00000075      -0.00000077
Si      16.29260761      13.57191803       8.15598512      -0.00000527      -0.00000122      -0.00000846
Si      17.65202195      14.93589847       9.50855993       0.00000084      -0.00000698      -0.00000731
Si      19.02035770      10.86334489       8.14809422      -0.00000872       0.00000405      -0.00000300
Si      20.37155645      12.22408253       9.50767597      -0.00000622      -0.00000040       0.00000129
Si      19.01348383      13.58083684       5.43290934      -0.00001231       0.00001339      -0.00001336
Si      20.36825546      14.93870034       6.79062642       0.00000420      -0.00000316      -0.00000902
Si      16.31696103      10.86488733      10.86488733      -0.00001141      -0.00000300      -0.00000300
Si      17.66317665      12.22790186      12.22790186      -0.00001322      -0.00000329      -0.00000329
Si      16.29821107      13.58294489      13.58294489       0.00000501       0.00000864       0.00000864
Si      17.65248133      14.94048617      14.94048617      -0.00000146      -0.00000763      -0.00000763
Si      19.01487522      10.86610915      13.58296008      -0.00000938       0.00000074      -0.00000102
Si      20.36811168      12.22436803      14.94138484      -0.00000052      -0.00000220      -0.00000429
Si      19.01487522      13.58296008      10.86610915      -0.00000938      -0.00000102       0.00000074
Si      20.36811168      14.94138484      12.22436803      -0.00000052      -0.00000429      -0.00000220
Si      16.29515432      10.86588280      16.29556388      -0.00000460      -0.00000332       0.00000518
Si      17.65160544      12.22304614      17.65337263       0.00000666      -0.00000405       0.00000386
Si      16.29329091      13.57980791      19.01089871      -0.00000553       0.00000411       0.00000343
Si      17.65026212      14.93711924      20.36833167      -0.00000536       0.00000039       0.00000481
Si      19.00968142      10.86498978      19.00869030       0.00001515       0.00000087      -0.00000268
Si      20.36629490      12.22279285      20.36709266      -0.00000042      -0.00001369       0.00000357
Si      19.00916266      13.58169225      16.29729150      -0.00000658       0.00000270      -0.00000906
Si      20.36580020      14.93933337      17.65479616      -0.00000510      -0.00000605      -0.00000410
Si      16.29143794      16.29191598       0.00280820      -0.00000718       0.00001377       0.00000172
Si      17.65065350      17.64845442       1.35856884      -0.00000801      -0.00000200       0.00000242
Si      16.29224243      19.00255732       2.71654137      -0.00000782      -0.00000034      -0.00000292
Si      17.65469910      20.35859463       4.07004610      -0.00000065      -0.00000416      -0.00000702
Si      19.00736375      16.29180343       2.71740196      -0.00000125      -0.00000009       0.00000597
Si      20.36680818      17.64952309       4.07275629       0.00000369      -0.00000453       0.00000127
Si      19.00797136      19.00727437       0.00041022       0.00000180       0.00000588      -0.00000131
Si      20.36914352      20.36308961       1.35539834       0.00000117       0.00001494      -0.00000397
Si      16.28903785      16.28481325       5.43685670       0.00000010      -0.00000116      -0.00001563
Si      17.64944717      17.64644086       6.79020115       0.00000215       0.00000605      -0.00001410
Si      16.29372387      19.00520049       8.14832276       0.00000514      -0.00000068      -0.00000876
Si      17.65302758      20.36293573       9.50561042       0.00000812      -0.00000879      -0.00000478
Si      19.00877319      16.29299536       8.14925429      -0.00000824      -0.00000232      -0.00000031
Si      20.36609558      17.65213029       9.50624542      -0.00000182      -0.00000085      -0.00000106
Si      19.00931053      19.00338722       5.43170312       0.00001560      -0.00000077      -0.00000852
Si      20.37068768      20.36029386       6.78716055      -0.00000351      -0.00000470      -0.00001134
Si      16.29515432      16.29556388      10.86588280      -0.00000460       0.00000518      -0.00000332
Si      17.65160544      17.65337263      12.22304614       0.00000666       0.00000386      -0.00000405
Si      16.29329091      19.01089871      13.57980791      -0.00000553       0.00000343       0.00000411
Si      17.65026212      20.36833167      14.93711924      -0.00000536       0.00000481       0.00000039
Si      19.00916266      16.29729150      13.58169225      -0.00000658      -0.00000906       0.00000270
Si      20.36580020      17.65479616      14.93933337      -0.00000510      -0.00000410      -0.00000605
Si      19.00968142      19.00869030      10.86498978       0.00001515      -0.00000268       0.00000087
Si      20.36629490      20.36709266      12.22279285      -0.00000042       0.00000357      -0.00001369
Si      16.29328242      16.29690979      16.29690979       0.00000005      -0.00000345      -0.00000345
Si      17.65080260      17.65348817      17.65348817      -0.00000945      -0.00000506      -0.00000506
Si      16.29182829      19.00949488      19.00949488      -0.00000853       0.00000631       0.00000631
Si      17.65188438      20.36490021      20.36490021       0.00000776       0.00000554       0.00000554
Si      19.00750186      16.29564621      19.01135963      -0.00000585       0.00000590      -0.00000042
Si      20.36636820      17.65209406      20.36767465       0.00000287       0.00000599      -0.00000965
Si      19.00750186      19.01135963      16.29564621      -0.00000585      -0.00000042       0.00000590
Si      20.36636820      20.36767465      17.65209406       0.00000287      -0.00000965       0.00000599
B       12.37725019       7.93133508       7.93133508      -0.00005844       0.00000679       0.00000679
B       13.44546904       8.85855354       8.85855354       0.00000062       0.00001034       0.00001034
