513
Lattice="21.724 0.0 0.0 0.0 21.724 0.0 0.0 0.0 21.724" Properties=species:S:1:pos:R:3:forces:R:3 energy=-2759.7555605084863 free_energy=-2759.7555605084863 pbc="T T T"
Si       0.00049565       0.00072639       0.00072639       0.00002389      -0.00001440      -0.00001440
Si       1.35859150       1.35801261       1.35801261       0.00000582       0.00001173       0.00001173
Si       0.00064006       2.71550000       2.71550000      -0.00003219       0.00000000      -0.00000000
Si       1.35859150       4.07298739       4.07298739       0.00000582      -0.00001173      -0.00001173
Si       2.71738255       0.00118443       2.71439948      -0.00000598      -0.00000597      -0.00001698
Si       4.07492418       1.35895570       4.07204430       0.00000454       0.00000527      -0.00000527
Si       2.71738255       2.71439948       0.00118443      -0.00000598      -0.00001698      -0.00000597
Si       4.07492418       4.07204430       1.35895570       0.00000454      -0.00000527       0.00000527
Si       0.00074745       0.00257574       5.42842426      -0.00000953       0.00004493      -0.00004493
Si       1.35822340       1.36008530       6.78623246       0.00000363      -0.00000370      -0.00000627
Si       0.00057528       2.71696441       8.14422862       0.00000742       0.00001966      -0.00000362
Si       1.35853062       4.07344455       9.50232059       0.00000519       0.00000082       0.00000692
Si       2.71592643       0.00351761       8.14355204       0.00000963      -0.00002973       0.00000569
Si       4.07356107       1.36057432       9.50188006       0.00000836      -0.00000156      -0.00000157
Si       2.71738255       2.71660052       5.42981557      -0.00000598       0.00001698       0.00000597
Si       4.07506976       4.07409207       6.78783945       0.00000640       0.00000862       0.00001305
Si       0.00113594       0.00453615      10.85953967       0.00000909      -0.00000875       0.00000321
Si       1.35795608       1.36065337      12.21849010       0.00000049       0.00001329       0.00000549
Si       0.00050755       2.71550000      13.57750000       0.00001102       0.00000000      -0.00000000
Si       1.35795608       4.07034663      14.93650990       0.00000049      -0.00001329      -0.00000549
Si       2.71329363       0.00417065      13.57789004       0.00000422      -0.00001460       0.00000086
Si       4.07394263       1.35816779      14.93587242       0.00001528       0.00000656       0.00000359
Si       2.71617126       2.71689626      10.86044301       0.00001247       0.00000744       0.00001097
Si       4.07394263       4.07283221      12.21912758       0.00001528      -0.00000656      -0.00000359
Si       0.00012078       0.00184176      16.29466310       0.00002793      -0.00000663      -0.00002586
Si       1.35853062       1.35755545      17.65267941       0.00000519      -0.00000082      -0.00000692
Si       0.00057528       2.71403559      19.01077138       0.00000742      -0.00001966       0.00000362
Si       1.35822340       4.07091470      20.36876754       0.00000363       0.00000370       0.00000627
Si       2.71662547       0.00024941      19.00980604      -0.00001726      -0.00002968      -0.00000482
Si       4.07506976       1.35690793      20.36716055       0.00000640      -0.00000862      -0.00001305
Si       2.71617126       2.71410374      16.29455699       0.00001247      -0.00000744      -0.00001097
Si       4.07356107       4.07042568      17.65311994       0.00000836       0.00000156       0.00000157
Si       0.00074745       5.42842426       0.00257574      -0.00000953      -0.00004493       0.00004493
Si       1.35822340       6.78623246       1.36008530       0.00000363      -0.00000627      -0.00000370
Si       0.00057528       8.14422862       2.71696441       0.00000742      -0.00000362       0.00001966
Si       1.35853062       9.50232059       4.07344455       0.00000519       0.00000692       0.00000082
Si       2.71738255       5.42981557       2.71660052      -0.00000598       0.00000597       0.00001698
Si       4.07506976       6.78783945       4.07409207       0.00000640       0.00001305       0.00000862
Si       2.71592643       8.14355204       0.00351761       0.00000963       0.00000569      -0.00002973
Si       4.07356107       9.50188006       1.36057432       0.00000836      -0.00000157      -0.00000156
Si       0.00049565       5.43027361       5.43027361       0.00002389       0.00001440       0.00001440
Si       1.35859149       6.78754410       6.78754410       0.00000579       0.00000310       0.00000310
Si       0.00012845       8.14441740       8.14441740       0.00002851      -0.00000454      -0.00000454
Si       1.35647136       9.50205001       9.50205001      -0.00003013      -0.00000011      -0.00000011
Si       2.71662547       5.43075059       8.14519396      -0.00001726       0.00002968       0.00000482
Si       4.07361928       6.78811257       9.50339631      -0.00000554      -0.00001072      -0.00000615
Si       2.71662547       8.14519396       5.43075059      -0.00001726       0.00000482       0.00002968
Si       4.07361928       9.50339631       6.78811257      -0.00000554      -0.00000615      -0.00001072
Si       0.00012078       5.42915824      10.86033690       0.00002793       0.00000663       0.00002586
Si       1.35686571       6.78535348      12.21903416      -0.00002640      -0.00000129       0.00001555
Si       0.00043159       8.14244842      13.57776174       0.00000985       0.00000353       0.00000308
Si       1.35554368       9.50008236      14.93715362      -0.00002965       0.00000033       0.00000785
Si       2.71329363       5.42682935      13.57710996       0.00000422       0.00001460      -0.00000086
Si       4.06713097       6.78150042      14.93807995       0.00000166      -0.00000660       0.00001643
Si       2.71220310       8.14301641      10.85982366      -0.00001135      -0.00000372       0.00000208
Si       4.06560762       9.49984171      12.21905013      -0.00000895       0.00000633      -0.00000483
Si       0.00113594       5.42646385      16.29546033       0.00000909       0.00000875      -0.00000321
Si       1.35683330       6.78369839      17.65453496      -0.00001276      -0.00000282       0.00001134
Si       0.00131988       8.14188556      19.01311444       0.00001931       0.00000774      -0.00000774
Si       1.35683330       9.50046504      20.37130161      -0.00001276      -0.00001134       0.00000282
Si       2.71592643       5.42748239      19.01144796       0.00000963       0.00002973      -0.00000569
Si       4.07255110       6.78489510      20.37010490       0.00000038       0.00000831      -0.00000831
Si       2.71118364       8.14104424      16.29578896      -0.00000221      -0.00000869       0.00000517
Si       4.06475249       9.49723774      17.65776226      -0.00000541       0.00000302      -0.00000302
Si       0.00113594      10.85953967       0.00453615       0.00000909       0.00000321      -0.00000875
Si       1.35795608      12.21849010       1.36065337       0.00000049       0.00000549       0.00001329
Si       0.00050755      13.57750000       2.71550000       0.00001102       0.00000000      -0.00000000
Si       1.35795608      14.93650990       4.07034663       0.00000049      -0.00000549      -0.00001329
Si       2.71617126      10.86044301       2.71689626       0.00001247       0.00001097       0.00000744
Si       4.07394263      12.21912758       4.07283221       0.00001528      -0.00000359      -0.00000656
Si       2.71329363      13.57789004       0.00417065       0.00000422       0.00000086      -0.00001460
Si       4.07394263      14.93587242       1.35816779       0.00001528       0.00000359       0.00000656
Si       0.00012078      10.86033690       5.42915824       0.00002793       0.00002586       0.00000663
Si       1.35686571      12.21903416       6.78535348      -0.00002640       0.00001555      -0.00000129
Si       0.00043159      13.57776174       8.14244842       0.00000985       0.00000308       0.00000353
Si       1.35554368      14.93715362       9.50008236      -0.00002965       0.00000785       0.00000033
Si       2.71220310      10.85982366       8.14301641      -0.00001135       0.00000208      -0.00000372
Si       4.06560762      12.21905013       9.49984171      -0.00000895      -0.00000483       0.00000633
Si       2.71329363      13.57710996       5.42682935       0.00000422      -0.00000086       0.00001460
Si       4.06713097      14.93807995       6.78150042       0.00000166       0.00001643      -0.00000660
Si       0.00045287      10.86024345      10.86024345       0.00000015      -0.00000659      -0.00000659
Si       1.35600702      12.21874369      12.21874369      -0.00002919      -0.00000560      -0.00000560
Si       0.00048091      13.57750000      13.57750000      -0.00000726       0.00000000      -0.00000000
Si       1.35600702      14.93625631      14.93625631      -0.00002919       0.00000560       0.00000560
Si       2.70991452      10.85856899      13.57789379       0.00001425      -0.00001284       0.00001845
Si       4.06339504      12.21600332      14.93899668      -0.00004205      -0.00000564       0.00000564
Si       2.70991452      13.57789379      10.85856899       0.00001425       0.00001845      -0.00001284
Si       4.06339504      14.93899668      12.21600332      -0.00004205       0.00000564      -0.00000564
Si       0.00079964      10.85888563      16.29611437      -0.00000773       0.00001263      -0.00001263
Si       1.35554368      12.21784638      17.65491764      -0.00002965      -0.00000785      -0.00000033
Si       0.00043159      13.57723826      19.01255158       0.00000985      -0.00000308      -0.00000353
Si       1.35686571      14.93596584      20.36964652      -0.00002640      -0.00001555       0.00000129
Si       2.71118364      10.85921104      19.01395576      -0.00000221      -0.00000517       0.00000869
Si       4.06713097      12.21692005      20.37349958       0.00000166      -0.00001643       0.00000660
Si       2.70991452      13.57710621      16.29643101       0.00001425      -0.00001845       0.00001284
Si       4.06560762      14.93594987      17.65515829      -0.00000895       0.00000483      -0.00000633
Si       0.00012078      16.29466310       0.00184176       0.00002793      -0.00002586      -0.00000663
Si       1.35853062      17.65267941       1.35755545       0.00000519      -0.00000692      -0.00000082
Si       0.00057528      19.01077138       2.71403559       0.00000742       0.00000362      -0.00001966
Si       1.35822340      20.36876754       4.07091470       0.00000363       0.00000627       0.00000370
Si       2.71617126      16.29455699       2.71410374       0.00001247      -0.00001097      -0.00000744
Si       4.07356107      17.65311994       4.07042568       0.00000836       0.00000157       0.00000156
Si       2.71662547      19.00980604       0.00024941      -0.00001726      -0.00000482      -0.00002968
Si       4.07506976      20.36716055       1.35690793       0.00000640      -0.00001305      -0.00000862
Si       0.00113594      16.29546033       5.42646385       0.00000909      -0.00000321       0.00000875
Si       1.35683330      17.65453496       6.78369839      -0.00001276       0.00001134      -0.00000282
Si       0.00131988      19.01311444       8.14188556       0.00001931      -0.00000774       0.00000774
Si       1.35683330      20.37130161       9.50046504      -0.00001276       0.00000282      -0.00001134
Si       2.71118364      16.29578896       8.14104424      -0.00000221       0.00000517      -0.00000869
Si       4.06475249      17.65776226       9.49723774      -0.00000541      -0.00000302       0.00000302
Si       2.71592643      19.01144796       5.42748239       0.00000963      -0.00000569       0.00002973
Si       4.07255110      20.37010490       6.78489510       0.00000038      -0.00000831       0.00000831
Si       0.00079964      16.29611437      10.85888563      -0.00000773      -0.00001263       0.00001263
Si       1.35554368      17.65491764      12.21784638      -0.00002965      -0.00000033      -0.00000785
Si       0.00043159      19.01255158      13.57723826       0.00000985      -0.00000353      -0.00000308
Si       1.35686571      20.36964652      14.93596584      -0.00002640       0.00000129      -0.00001555
Si       2.70991452      16.29643101      13.57710621       0.00001425       0.00001284      -0.00001845
Si       4.06560762      17.65515829      14.93594987      -0.00000895      -0.00000633       0.00000483
Si       2.71118364      19.01395576      10.85921104      -0.00000221       0.00000869      -0.00000517
Si       4.06713097      20.37349958      12.21692005       0.00000166       0.00000660      -0.00001643
Si       0.00045287      16.29475655      16.29475655       0.00000015       0.00000659       0.00000659
Si       1.35647136      17.65294999      17.65294999      -0.00003013       0.00000011       0.00000011
Si       0.00012845      19.01058260      19.01058260       0.00002851       0.00000454       0.00000454
Si       1.35859149      20.36745590      20.36745590       0.00000579      -0.00000310      -0.00000310
Si       2.71220310      16.29517634      19.01198359      -0.00001135      -0.00000208       0.00000372
Si       4.07361928      17.65160369      20.36688743      -0.00000554       0.00000615       0.00001072
Si       2.71220310      19.01198359      16.29517634      -0.00001135       0.00000372      -0.00000208
Si       4.07361928      20.36688743      17.65160369      -0.00000554       0.00001072       0.00000615
Si       5.43380261      -0.00085934      -0.00085934       0.00000367      -0.00001067      -0.00001067
Si       6.79081225       1.35717439       1.35717439      -0.00001304       0.00000157       0.00000157
Si       5.43385077       2.71550000       2.71550000       0.00000093       0.00000000      -0.00000000
Si       6.79081225       4.07382561       4.07382561      -0.00001304      -0.00000157      -0.00000157
Si       8.14872501      -0.00035368       2.71387645       0.00002127      -0.00000870       0.00000364
Si       9.50500326       1.35821802       4.07278198       0.00000702       0.00001870      -0.00001870
Si       8.14872501       2.71387645      -0.00035368       0.00002127       0.00000364      -0.00000870
Si       9.50500326       4.07278198       1.35821802       0.00000702      -0.00001870       0.00001870
Si       5.43280496       0.00203511       5.42896489       0.00000903      -0.00002290       0.00002290
Si       6.79004636       1.35970958       6.78749142      -0.00000180       0.00001353       0.00000054
Si       5.43292006       2.71744793       8.14558605       0.00001034       0.00000081       0.00001214
Si       6.79038168       4.07471888       9.50442646      -0.00000932       0.00000415      -0.00000280
Si       8.14713769       0.00217125       8.14487740      -0.00000094       0.00000589      -0.00002125
Si       9.50460954       1.35877465       9.50433744      -0.00000534       0.00001369      -0.00002079
Si       8.14872501       2.71712355       5.43135368       0.00002127      -0.00000364       0.00000870
Si       9.50506074       4.07571616       6.79067622       0.00000622       0.00000351      -0.00000939
Si       5.42971994       0.00335942      10.86004149      -0.00000647       0.00000007      -0.00000832
Si       6.78899979       1.35829313      12.21921412      -0.00001168       0.00000743      -0.00000305
Si       5.43149841       2.71550000      13.57750000      -0.00002004       0.00000000       0.00000000
Si       6.78899979       4.07270687      14.93578588      -0.00001168      -0.00000743       0.00000305
Si       8.14639537      -0.00113743      13.57629259       0.00002186       0.00001030      -0.00001544
Si       9.50450229       1.35639380      14.93408643      -0.00002516      -0.00000040       0.00001388
Si       8.14731322       2.71658488      10.86245450      -0.00000050       0.00001128      -0.00000260
Si       9.50450229       4.07460620      12.22091357      -0.00002516       0.00000040      -0.00001388
Si       5.43171165      -0.00023435      16.29337921       0.00000471       0.00000368      -0.00000477
Si       6.79038168       1.35628112      17.65057354      -0.00000932      -0.00000415       0.00000280
Si       5.43292006       2.71355207      19.00941395       0.00001034      -0.00000081      -0.00001214
Si       6.79004636       4.07129042      20.36750858      -0.00000180      -0.00001353      -0.00000054
Si       8.14885349      -0.00348238      19.00561725       0.00001031       0.00000057       0.00000729
Si       9.50506074       1.35528384      20.36432378       0.00000622      -0.00000351       0.00000939
Si       8.14731322       2.71441512      16.29254550      -0.00000050      -0.00001128       0.00000260
Si       9.50460954       4.07222535      17.65066256      -0.00000534      -0.00001369       0.00002079
Si       5.43280496       5.42896489       0.00203511       0.00000903       0.00002290      -0.00002290
Si       6.79004636       6.78749142       1.35970958      -0.00000180       0.00000054       0.00001353
Si       5.43292006       8.14558605       2.71744793       0.00001034       0.00001214       0.00000081
Si       6.79038168       9.50442646       4.07471888      -0.00000932      -0.00000280       0.00000415
Si       8.14872501       5.43135368       2.71712355       0.00002127       0.00000870      -0.00000364
Si       9.50506074       6.79067622       4.07571616       0.00000622      -0.00000939       0.00000351
Si       8.14713769       8.14487740       0.00217125      -0.00000094      -0.00002125       0.00000589
Si       9.50460954       9.50433744       1.35877465      -0.00000534      -0.00002079       0.00001369
Si       5.43380261       5.43185934       5.43185934       0.00000367       0.00001067       0.00001067
Si       6.79084372       6.79039442       6.79039442      -0.00001351      -0.00001250      -0.00001250
Si       5.43175086       8.14706656       8.14706656       0.00001952       0.00000333       0.00000333
Si       6.78753640       9.50594242       9.50594242      -0.00001762       0.00002777       0.00002777
Si       8.14885349       5.43448238       8.14938275       0.00001031      -0.00000057      -0.00000729
Si       9.50453650       6.79418275       9.50911103      -0.00002201      -0.00000619      -0.00001562
Si       8.14885349       8.14938275       5.43448238       0.00001031      -0.00000729      -0.00000057
Si       9.50453650       9.50911103       6.79418275      -0.00002201      -0.00001562      -0.00000619
Si       5.43171165       5.43123435      10.86162079       0.00000471      -0.00000368       0.00000477
Si       6.78832190       6.78918734      12.22020000      -0.00002598       0.00001101       0.00000276
Si       5.41853839       8.13624996      13.57678383       0.00000723       0.00001544       0.00002653
Si       6.76399831       9.48572654      14.94330266      -0.00005219      -0.00000888       0.00000986
Si       8.14639537       5.43213743      13.57870741       0.00002186      -0.00001030       0.00001544
Si       9.50310050       6.79025444      14.93771589      -0.00005362      -0.00002874       0.00002737
Si       8.14838391       8.15327624      10.86806305      -0.00000750       0.00001370      -0.00000144
Si       9.50270875       9.51601999      12.23395233      -0.00003940      -0.00001820      -0.00001439
Si       5.42971994       5.42764058      16.29495851      -0.00000647      -0.00000007       0.00000832
Si       6.78626196       6.78455368      17.65481913      -0.00002322      -0.00000932       0.00001082
Si       5.42834492       8.14225809      19.01274191      -0.00001775      -0.00001164       0.00001164
Si       6.78626196       9.50018087      20.37044632      -0.00002322      -0.00001082       0.00000932
Si       8.14713769       5.42882875      19.01012260      -0.00000094      -0.00000589       0.00002125
Si       9.50448784       6.78732281      20.36767719      -0.00001441      -0.00001239       0.00001239
Si       8.14174954       8.14286730      16.29800518       0.00001152       0.00000208       0.00001306
Si       9.50522542       9.50253955      17.65246045      -0.00001863      -0.00003297       0.00003297
Si       5.42971994      10.86004149       0.00335942      -0.00000647      -0.00000832       0.00000007
Si       6.78899979      12.21921412       1.35829313      -0.00001168      -0.00000305       0.00000743
Si       5.43149841      13.57750000       2.71550000      -0.00002004      -0.00000000       0.00000000
Si       6.78899979      14.93578588       4.07270687      -0.00001168       0.00000305      -0.00000743
Si       8.14731322      10.86245450       2.71658488      -0.00000050      -0.00000260       0.00001128
Si       9.50450229      12.22091357       4.07460620      -0.00002516      -0.00001388       0.00000040
Si       8.14639537      13.57629259      -0.00113743       0.00002186      -0.00001544       0.00001030
Si       9.50450229      14.93408643       1.35639380      -0.00002516       0.00001388      -0.00000040
Si       5.43171165      10.86162079       5.43123435       0.00000471       0.00000477      -0.00000368
Si       6.78832190      12.22020000       6.78918734      -0.00002598       0.00000276       0.00001101
Si       5.41853839      13.57678383       8.13624996       0.00000723       0.00002653       0.00001544
Si       6.76399831      14.94330266       9.48572654      -0.00005219       0.00000986      -0.00000888
Si       8.14838391      10.86806305       8.15327624      -0.00000750      -0.00000144       0.00001370
Si       9.50270875      12.23395233       9.51601999      -0.00003940      -0.00001439      -0.00001820
Si       8.14639537      13.57870741       5.43213743       0.00002186       0.00001544      -0.00001030
Si       9.50310050      14.93771589       6.79025444      -0.00005362       0.00002737      -0.00002874
Si       5.41898415      10.85812624      10.85812624       0.00001720      -0.00001547      -0.00001547
Si       6.76589361      12.21847060      12.21847060      -0.00000351      -0.00000989      -0.00000989
Si       5.41292399      13.57750000      13.57750000       0.00001129       0.00000000       0.00000000
Si       6.76589361      14.93652940      14.93652940      -0.00000351       0.00000989       0.00000989
Si       8.10196587      10.83862555      13.58173037       0.00000606       0.00001855       0.00000360
Si       9.39443055      12.15904793      14.99595207      -0.00001720      -0.00002834       0.00002834
Si       8.10196587      13.58173037      10.83862555       0.00000606       0.00000360       0.00001855
Si       9.39443055      14.99595207      12.15904793      -0.00001720       0.00002834      -0.00002834
Si       5.41576328      10.85475184      16.30024816       0.00001684       0.00000552      -0.00000552
Si       6.76399831      12.21169734      17.66927346      -0.00005219      -0.00000986       0.00000888
Si       5.41853839      13.57821617      19.01875004       0.00000723      -0.00002653      -0.00001544
Si       6.78832190      14.93480000      20.36581266      -0.00002598      -0.00000276      -0.00001101
Si       8.14174954      10.85699482      19.01213270       0.00001152      -0.00001306      -0.00000208
Si       9.50310050      12.21728411      20.36474556      -0.00005362      -0.00002737       0.00002874
Si       8.10196587      13.57326963      16.31637445       0.00000606      -0.00000360      -0.00001855
Si       9.50270875      14.92104767      17.63898001      -0.00003940       0.00001439       0.00001820
Si       5.43171165      16.29337921      -0.00023435       0.00000471      -0.00000477       0.00000368
Si       6.79038168      17.65057354       1.35628112      -0.00000932       0.00000280      -0.00000415
Si       5.43292006      19.00941395       2.71355207       0.00001034      -0.00001214      -0.00000081
Si       6.79004636      20.36750858       4.07129042      -0.00000180      -0.00000054      -0.00001353
Si       8.14731322      16.29254550       2.71441512      -0.00000050       0.00000260      -0.00001128
Si       9.50460954      17.65066256       4.07222535      -0.00000534       0.00002079      -0.00001369
Si       8.14885349      19.00561725      -0.00348238       0.00001031       0.00000729       0.00000057
Si       9.50506074      20.36432378       1.35528384       0.00000622       0.00000939      -0.00000351
Si       5.42971994      16.29495851       5.42764058      -0.00000647       0.00000832      -0.00000007
Si       6.78626196      17.65481913       6.78455368      -0.00002322       0.00001082      -0.00000932
Si       5.42834492      19.01274191       8.14225809      -0.00001775       0.00001164      -0.00001164
Si       6.78626196      20.37044632       9.50018087      -0.00002322       0.00000932      -0.00001082
Si       8.14174954      16.29800518       8.14286730       0.00001152       0.00001306       0.00000208
Si       9.50522542      17.65246045       9.50253955      -0.00001863       0.00003297      -0.00003297
Si       8.14713769      19.01012260       5.42882875      -0.00000094       0.00002125      -0.00000589
Si       9.50448784      20.36767719       6.78732281      -0.00001441       0.00001239      -0.00001239
Si       5.41576328      16.30024816      10.85475184       0.00001684      -0.00000552       0.00000552
Si       6.76399831      17.66927346      12.21169734      -0.00005219       0.00000888      -0.00000986
Si       5.41853839      19.01875004      13.57821617       0.00000723      -0.00001544      -0.00002653
Si       6.78832190      20.36581266      14.93480000      -0.00002598      -0.00001101      -0.00000276
Si       8.10196587      16.31637445      13.57326963       0.00000606      -0.00001855      -0.00000360
Si       9.50270875      17.63898001      14.92104767      -0.00003940       0.00001820       0.00001439
Si       8.14174954      19.01213270      10.85699482       0.00001152      -0.00000208      -0.00001306
Si       9.50310050      20.36474556      12.21728411      -0.00005362       0.00002874      -0.00002737
Si       5.41898415      16.29687376      16.29687376       0.00001720       0.00001547       0.00001547
Si       6.78753640      17.64905758      17.64905758      -0.00001762      -0.00002777      -0.00002777
Si       5.43175086      19.00793344      19.00793344       0.00001952      -0.00000333      -0.00000333
Si       6.79084372      20.36460558      20.36460558      -0.00001351       0.00001250       0.00001250
Si       8.14838391      16.28693695      19.00172376      -0.00000750       0.00000144      -0.00001370
Si       9.50453650      17.64588897      20.36081725      -0.00002201       0.00001562       0.00000619
Si       8.14838391      19.00172376      16.28693695      -0.00000750      -0.00001370       0.00000144
Si       9.50453650      20.36081725      17.64588897      -0.00002201       0.00000619       0.00001562
Si      10.86248876      -0.00333402      -0.00333402       0.00000119      -0.00000280      -0.00000280
Si      12.21832809       1.35623117       1.35623117      -0.00001027       0.00000849       0.00000849
Si      10.86261864       2.71550000       2.71550000       0.00000634       0.00000000       0.00000000
Si      12.21832809       4.07476883       4.07476883      -0.00001027      -0.00000849      -0.00000849
Si      13.57621987      -0.00014149       2.71435960       0.00000994      -0.00001000       0.00001096
Si      14.93305562       1.35857575       4.07242425       0.00001054       0.00000515      -0.00000515
Si      13.57621987       2.71435960      -0.00014149       0.00000994       0.00001096      -0.00001000
Si      14.93305562       4.07242425       1.35857575       0.00001054      -0.00000515       0.00000515
Si      10.86251644       0.00079407       5.43020593       0.00000987       0.00000797      -0.00000797
Si      12.21901106       1.35907850       6.78881115       0.00000270       0.00000177      -0.00000523
Si      10.86229411       2.71720183       8.14763339       0.00003865       0.00001763      -0.00001398
Si      12.21884182       4.07551830       9.50616531      -0.00000392      -0.00000670      -0.00000516
Si      13.57739270       0.00147349       8.14541697       0.00001208       0.00000506      -0.00001128
Si      14.93470927       1.35962197       9.50311852      -0.00000395      -0.00000016       0.00000743
Si      13.57621987       2.71664040       5.43114149       0.00000994      -0.00001096       0.00001000
Si      14.93304931       4.07480318       6.78908732       0.00001733       0.00001165      -0.00000852
Si      10.86196840       0.00006012      10.86143464       0.00000951       0.00001381      -0.00001467
Si      12.21985374       1.35751403      12.21960153       0.00000780       0.00000106      -0.00000380
Si      10.86227526       2.71550000      13.57750000      -0.00000025       0.00000000       0.00000000
Si      12.21985374       4.07348597      14.93539847       0.00000780      -0.00000106       0.00000380
Si      13.57831430      -0.00064299      13.57673339       0.00001117      -0.00000511      -0.00000608
Si      14.93534874       1.35745919      14.93516642      -0.00001844      -0.00000447      -0.00002255
Si      13.57701783       2.71640561      10.86219926       0.00001732       0.00001693       0.00000610
Si      14.93534874       4.07354081      12.21983358      -0.00001844       0.00000447       0.00002255
Si      10.86190152      -0.00314830      16.29007899       0.00001650       0.00002098       0.00001758
Si      12.21884182       1.35548170      17.64883469      -0.00000392       0.00000670       0.00000516
Si      10.86229411       2.71379817      19.00736661       0.00003865      -0.00001763       0.00001398
Si      12.21901106       4.07192150      20.36618885       0.00000270      -0.00000177       0.00000523
Si      13.57582013      -0.00201794      19.00736070       0.00000961      -0.00002760      -0.00001500
Si      14.93304931       1.35619682      20.36591268       0.00001733      -0.00001165       0.00000852
Si      13.57701783       2.71459439      16.29280074       0.00001732      -0.00001693      -0.00000610
Si      14.93470927       4.07137803      17.65188148      -0.00000395       0.00000016      -0.00000743
Si      10.86251644       5.43020593       0.00079407       0.00000987      -0.00000797       0.00000797
Si      12.21901106       6.78881115       1.35907850       0.00000270      -0.00000523       0.00000177
Si      10.86229411       8.14763339       2.71720183       0.00003865      -0.00001398       0.00001763
Si      12.21884182       9.50616531       4.07551830      -0.00000392      -0.00000516      -0.00000670
Si      13.57621987       5.43114149       2.71664040       0.00000994       0.00001000      -0.00001096
Si      14.93304931       6.78908732       4.07480318       0.00001733      -0.00000852       0.00001165
Si      13.57739270       8.14541697       0.00147349       0.00001208      -0.00001128       0.00000506
Si      14.93470927       9.50311852       1.35962197      -0.00000395       0.00000743      -0.00000016
Si      10.86248876       5.43433402       5.43433402       0.00000119       0.00000280       0.00000280
Si      12.21738265       6.79453367       6.79453367      -0.00000204      -0.00001232      -0.00001232
Si      10.86346688       8.15696977       8.15696977       0.00002326      -0.00001665      -0.00001665
Si      12.21211337       9.52390624       9.52390624       0.00001274      -0.00000870      -0.00000870
Si      13.57582013       5.43301794       8.14763930       0.00000961       0.00002760       0.00001500
Si      14.93461467       6.78974658       9.50381303      -0.00001702       0.00000328       0.00000725
Si      13.57582013       8.14763930       5.43301794       0.00000961       0.00001500       0.00002760
Si      14.93461467       9.50381303       6.78974658      -0.00001702       0.00000725       0.00000328
Si      10.86190152       5.43414830      10.86492101       0.00001650      -0.00002098      -0.00001758
Si      12.21964785       6.79196292      12.22264974      -0.00002214      -0.00001310      -0.00000866
Si      10.86383235       8.15249532      13.58355733       0.00000611       0.00000061       0.00001864
Si      12.22944603       9.50945460      14.93371186      -0.00000773       0.00000205       0.00000836
Si      13.57831430       5.43164299      13.57826661       0.00001117       0.00000511       0.00000608
Si      14.93873747       6.78517402      14.93839245      -0.00004063       0.00000497       0.00000232
Si      13.57797828       8.14870822      10.86257254       0.00001813      -0.00000355       0.00001306
Si      14.95809937       9.48829077      12.21561332      -0.00006102       0.00002335       0.00001110
Si      10.86196840       5.43093988      16.29356536       0.00000951      -0.00001381       0.00001467
Si      12.22031150       6.78774205      17.65212724      -0.00001004      -0.00001221       0.00000787
Si      10.86156504       8.14484397      19.01015603       0.00001628      -0.00002709       0.00002709
Si      12.22031150       9.50287276      20.36725795      -0.00001004      -0.00000787       0.00001221
Si      13.57739270       5.42952651      19.00958303       0.00001208      -0.00000506       0.00001128
Si      14.93489148       6.78618555      20.36881445       0.00000346       0.00000434      -0.00000434
Si      13.57972584       8.14536283      16.29566651       0.00004565      -0.00002328       0.00002603
Si      14.94146088       9.49819746      17.65680254      -0.00002587      -0.00001287       0.00001287
Si      10.86196840      10.86143464       0.00006012       0.00000951      -0.00001467       0.00001381
Si      12.21985374      12.21960153       1.35751403       0.00000780      -0.00000380       0.00000106
Si      10.86227526      13.57750000       2.71550000      -0.00000025      -0.00000000      -0.00000000
Si      12.21985374      14.93539847       4.07348597       0.00000780       0.00000380      -0.00000106
Si      13.57701783      10.86219926       2.71640561       0.00001732       0.00000610       0.00001693
Si      14.93534874      12.21983358       4.07354081      -0.00001844       0.00002255       0.00000447
Si      13.57831430      13.57673339      -0.00064299       0.00001117      -0.00000608      -0.00000511
Si      14.93534874      14.93516642       1.35745919      -0.00001844      -0.00002255      -0.00000447
Si      10.86190152      10.86492101       5.43414830       0.00001650      -0.00001758      -0.00002098
Si      12.21964785      12.22264974       6.79196292      -0.00002214      -0.00000866      -0.00001310
Si      10.86383235      13.58355733       8.15249532       0.00000611       0.00001864       0.00000061
Si      12.22944603      14.93371186       9.50945460      -0.00000773       0.00000836       0.00000205
Si      13.57797828      10.86257254       8.14870822       0.00001813       0.00001306      -0.00000355
Si      14.95809937      12.21561332       9.48829077      -0.00006102       0.00001110       0.00002335
Si      13.57831430      13.57826661       5.43164299       0.00001117       0.00000608       0.00000511
Si      14.93873747      14.93839245       6.78517402      -0.00004063       0.00000232       0.00000497
Si      10.86036762      10.89795391      10.89795391       0.00004088       0.00000743       0.00000743
Si      12.33054275      12.22333649      12.22333649      -0.00003032      -0.00001936      -0.00001936
Si      10.49043648      13.57750000      13.57750000      -0.00001236      -0.00000000       0.00000000
Si      12.33054275      14.93166351      14.93166351      -0.00003032       0.00001936       0.00001936
Si      13.62980587      10.82506764      13.58889096       0.00000835      -0.00002301      -0.00001486
Si      14.96970988      12.20619856      14.94880144      -0.00003089      -0.00001437       0.00001437
Si      13.62980587      13.58889096      10.82506764       0.00000835      -0.00001486      -0.00002301
Si      14.96970988      14.94880144      12.20619856      -0.00003089       0.00001437      -0.00001437
Si      10.86483122      10.86386202      16.29113798      -0.00000566       0.00000045      -0.00000045
Si      12.22944603      12.22128814      17.64554540      -0.00000773      -0.00000836      -0.00000205
Si      10.86383235      13.57144267      19.00250468       0.00000611      -0.00001864      -0.00000061
Si      12.21964785      14.93235026      20.36303708      -0.00002214       0.00000866       0.00001310
Si      13.57972584      10.85933349      19.00963717       0.00004565      -0.00002603       0.00002328
Si      14.93873747      12.21660755      20.36982598      -0.00004063      -0.00000232      -0.00000497
Si      13.62980587      13.56610904      16.32993236       0.00000835       0.00001486       0.00002301
Si      14.95809937      14.93938668      17.66670923      -0.00006102      -0.00001110      -0.00002335
Si      10.86190152      16.29007899      -0.00314830       0.00001650       0.00001758       0.00002098
Si      12.21884182      17.64883469       1.35548170      -0.00000392       0.00000516       0.00000670
Si      10.86229411      19.00736661       2.71379817       0.00003865       0.00001398      -0.00001763
Si      12.21901106      20.36618885       4.07192150       0.00000270       0.00000523      -0.00000177
Si      13.57701783      16.29280074       2.71459439       0.00001732      -0.00000610      -0.00001693
Si      14.93470927      17.65188148       4.07137803      -0.00000395      -0.00000743       0.00000016
Si      13.57582013      19.00736070      -0.00201794       0.00000961      -0.00001500      -0.00002760
Si      14.93304931      20.36591268       1.35619682       0.00001733       0.00000852      -0.00001165
Si      10.86196840      16.29356536       5.43093988       0.00000951       0.00001467      -0.00001381
Si      12.22031150      17.65212724       6.78774205      -0.00001004       0.00000787      -0.00001221
Si      10.86156504      19.01015603       8.14484397       0.00001628       0.00002709      -0.00002709
Si      12.22031150      20.36725795       9.50287276      -0.00001004       0.00001221      -0.00000787
Si      13.57972584      16.29566651       8.14536283       0.00004565       0.00002603      -0.00002328
Si      14.94146088      17.65680254       9.49819746      -0.00002587       0.00001287      -0.00001287
Si      13.57739270      19.00958303       5.42952651       0.00001208       0.00001128      -0.00000506
Si      14.93489148      20.36881445       6.78618555       0.00000346      -0.00000434       0.00000434
Si      10.86483122      16.29113798      10.86386202      -0.00000566      -0.00000045       0.00000045
Si      12.22944603      17.64554540      12.22128814      -0.00000773      -0.00000205      -0.00000836
Si      10.86383235      19.00250468      13.57144267       0.00000611      -0.00000061      -0.00001864
Si      12.21964785      20.36303708      14.93235026      -0.00002214       0.00001310       0.00000866
Si      13.62980587      16.32993236      13.56610904       0.00000835       0.00002301       0.00001486
Si      14.95809937      17.66670923      14.93938668      -0.00006102      -0.00002335      -0.00001110
Si      13.57972584      19.00963717      10.85933349       0.00004565       0.00002328      -0.00002603
Si      14.93873747      20.36982598      12.21660755      -0.00004063      -0.00000497      -0.00000232
Si      10.86036762      16.25704609      16.25704609       0.00004088      -0.00000743      -0.00000743
Si      12.21211337      17.63109376      17.63109376       0.00001274       0.00000870       0.00000870
Si      10.86346688      18.99803023      18.99803023       0.00002326       0.00001665       0.00001665
Si      12.21738265      20.36046633      20.36046633      -0.00000204       0.00001232       0.00001232
Si      13.57797828      16.29242746      19.00629178       0.00001813      -0.00001306       0.00000355
Si      14.93461467      17.65118697      20.36525342      -0.00001702      -0.00000725      -0.00000328
Si      13.57797828      19.00629178      16.29242746       0.00001813       0.00000355      -0.00001306
Si      14.93461467      20.36525342      17.65118697      -0.00001702      -0.00000328      -0.00000725
Si      16.29133585      -0.00031743      -0.00031743       0.00003837      -0.00001472      -0.00001472
Si      17.64882333       1.35767245       1.35767245      -0.00001094      -0.00000340      -0.00000340
Si      16.29131891       2.71550000       2.71550000       0.00003438      -0.00000000      -0.00000000
Si      17.64882333       4.07332755       4.07332755      -0.00001094       0.00000340       0.00000340
Si      19.00781793       0.00133196       2.71452759       0.00003101       0.00003295       0.00003282
Si      20.36563729       1.35900649       4.07199351       0.00003731       0.00000481      -0.00000481
Si      19.00781793       2.71452759       0.00133196       0.00003101       0.00003282       0.00003295
Si      20.36563729       4.07199351       1.35900649       0.00003731      -0.00000481       0.00000481
Si      16.29214130       0.00205723       5.42894277       0.00003770      -0.00000769       0.00000769
Si      17.64963967       1.35978878       6.78676746       0.00001728      -0.00000001       0.00000628
Si      16.29186704       2.71687743       8.14514705       0.00002048       0.00000189       0.00001369
Si      17.65029411       4.07334374       9.50271849       0.00000135       0.00000809       0.00000017
Si      19.00950199       0.00365510       8.14306475      -0.00001635      -0.00000461       0.00000105
Si      20.36662742       1.36039670       9.50173039       0.00001680       0.00000337      -0.00000060
Si      19.00781793       2.71647241       5.42966804       0.00003101      -0.00003282      -0.00003295
Si      20.36595914       4.07351834       6.78721062       0.00000537      -0.00000131       0.00001630
Si      16.29486167       0.00323899      10.85920111       0.00003263       0.00000105       0.00001244
Si      17.65172862       1.35973539      12.21878936       0.00001040       0.00000132       0.00000398
Si      16.29313646       2.71550000      13.57750000       0.00000743      -0.00000000      -0.00000000
Si      17.65172862       4.07126461      14.93621064       0.00001040      -0.00000132      -0.00000398
Si      19.01180140       0.00459789      13.57669282      -0.00001316       0.00001079      -0.00001646
Si      20.36761969       1.35956733      14.93643656       0.00003199       0.00001079      -0.00002348
Si      19.00869988       2.71642685      10.86023249      -0.00002455      -0.00000120       0.00001235
Si      20.36761969       4.07143267      12.21856344       0.00003199      -0.00001079       0.00002348
Si      16.29309869       0.00070010      16.29402275       0.00002024       0.00000553      -0.00001114
Si      17.65029411       1.35765626      17.65228151       0.00000135      -0.00000809      -0.00000017
Si      16.29186704       2.71412257      19.00985295       0.00002048      -0.00000189      -0.00001369
Si      17.64963967       4.07121122      20.36823254       0.00001728       0.00000001      -0.00000628
Si      19.00817767       0.00053828      19.00991307      -0.00001321      -0.00000944      -0.00000113
Si      20.36595914       1.35748166      20.36778938       0.00000537       0.00000131      -0.00001630
Si      19.00869988       2.71457315      16.29476751      -0.00002455       0.00000120      -0.00001235
Si      20.36662742       4.07060330      17.65326961       0.00001680      -0.00000337       0.00000060
Si      16.29214130       5.42894277       0.00205723       0.00003770       0.00000769      -0.00000769
Si      17.64963967       6.78676746       1.35978878       0.00001728       0.00000628      -0.00000001
Si      16.29186704       8.14514705       2.71687743       0.00002048       0.00001369       0.00000189
Si      17.65029411       9.50271849       4.07334374       0.00000135       0.00000017       0.00000809
Si      19.00781793       5.42966804       2.71647241       0.00003101      -0.00003295      -0.00003282
Si      20.36595914       6.78721062       4.07351834       0.00000537       0.00001630      -0.00000131
Si      19.00950199       8.14306475       0.00365510      -0.00001635       0.00000105      -0.00000461
Si      20.36662742       9.50173039       1.36039670       0.00001680      -0.00000060       0.00000337
Si      16.29133585       5.43131743       5.43131743       0.00003837       0.00001472       0.00001472
Si      17.65011754       6.78835448       6.78835448       0.00000099      -0.00001411      -0.00001411
Si      16.29387142       8.14660898       8.14660898       0.00000668       0.00000648       0.00000648
Si      17.65480194       9.50334416       9.50334416      -0.00000666       0.00001141       0.00001141
Si      19.00817767       5.43046172       8.14508693      -0.00001321       0.00000944       0.00000113
Si      20.36726087       6.78670881       9.50221016       0.00000782       0.00000963       0.00001676
Si      19.00817767       8.14508693       5.43046172      -0.00001321       0.00000113       0.00000944
Si      20.36726087       9.50221016       6.78670881       0.00000782       0.00001676       0.00000963
Si      16.29309869       5.43029990      10.86097725       0.00002024      -0.00000553       0.00001114
Si      17.65748113       6.78212110      12.21798519      -0.00000895       0.00000664       0.00001676
Si      16.30648704       8.13483342      13.58055463       0.00003489      -0.00001440       0.00000915
Si      17.66553923       9.49385846      14.93857799      -0.00001302      -0.00000460       0.00000443
Si      19.01180140       5.42640211      13.57830718      -0.00001316      -0.00001079       0.00001646
Si      20.36980670       6.78301686      14.93639395      -0.00001642       0.00000824       0.00000166
Si      19.01150762       8.14399258      10.86057898       0.00000074       0.00001158       0.00001540
Si      20.36933239       9.50096276      12.21854023      -0.00002151      -0.00000970       0.00000072
Si      16.29486167       5.42776101      16.29579889       0.00003263      -0.00000105      -0.00001244
Si      17.65331844       6.78440509      17.65421866      -0.00000578       0.00001099      -0.00000408
Si      16.29639478       8.14117060      19.01382940       0.00000155       0.00000673      -0.00000673
Si      17.65331844       9.50078134      20.37059491      -0.00000578       0.00000408      -0.00001099
Si      19.00950199       5.42734490      19.01193525      -0.00001635       0.00000461      -0.00000105
Si      20.36663124       6.78520861      20.36979139       0.00002136      -0.00000649       0.00000649
Si      19.01643061       8.13832653      16.29807039       0.00001667      -0.00001685       0.00000610
Si      20.37023478       9.49972671      17.65527329      -0.00002012      -0.00000180       0.00000180
Si      16.29486167      10.85920111       0.00323899       0.00003263       0.00001244       0.00000105
Si      17.65172862      12.21878936       1.35973539       0.00001040       0.00000398       0.00000132
Si      16.29313646      13.57750000       2.71550000       0.00000743      -0.00000000       0.00000000
Si      17.65172862      14.93621064       4.07126461       0.00001040      -0.00000398      -0.00000132
Si      19.00869988      10.86023249       2.71642685      -0.00002455       0.00001235      -0.00000120
Si      20.36761969      12.21856344       4.07143267       0.00003199       0.00002348      -0.00001079
Si      19.01180140      13.57669282       0.00459789      -0.00001316      -0.00001646       0.00001079
Si      20.36761969      14.93643656       1.35956733       0.00003199      -0.00002348       0.00001079
Si      16.29309869      10.86097725       5.43029990       0.00002024       0.00001114      -0.00000553
Si      17.65748113      12.21798519       6.78212110      -0.00000895       0.00001676       0.00000664
Si      16.30648704      13.58055463       8.13483342       0.00003489       0.00000915      -0.00001440
Si      17.66553923      14.93857799       9.49385846      -0.00001302       0.00000443      -0.00000460
Si      19.01150762      10.86057898       8.14399258       0.00000074       0.00001540       0.00001158
Si      20.36933239      12.21854023       9.50096276      -0.00002151       0.00000072      -0.00000970
Si      19.01180140      13.57830718       5.42640211      -0.00001316       0.00001646      -0.00001079
Si      20.36980670      14.93639395       6.78301686      -0.00001642       0.00000166       0.00000824
Si      16.30144641      10.86323370      10.86323370       0.00000288      -0.00001766      -0.00001766
Si      17.65787768      12.22019138      12.22019138      -0.00001957      -0.00000660      -0.00000660
Si      16.30161901      13.57750000      13.57750000      -0.00002735       0.00000000      -0.00000000
Si      17.65787768      14.93480862      14.93480862      -0.00001957       0.00000660       0.00000660
Si      19.01511987      10.85847687      13.57777150       0.00002891       0.00000965       0.00000959
Si      20.37016366      12.21793406      14.93706594      -0.00003782      -0.00000140       0.00000140
Si      19.01511987      13.57777150      10.85847687       0.00002891       0.00000959       0.00000965
Si      20.37016366      14.93706594      12.21793406      -0.00003782       0.00000140      -0.00000140
Si      16.31887509      10.84739786      16.30760214      -0.00001097      -0.00000132       0.00000132
Si      17.66553923      12.21642201      17.66114154      -0.00001302      -0.00000443       0.00000460
Si      16.30648704      13.57444537      19.02016658       0.00003489      -0.00000915       0.00001440
Si      17.65748113      14.93701481      20.37287890      -0.00000895      -0.00001676      -0.00000664
Si      19.01643061      10.85692961      19.01667347       0.00001667      -0.00000610       0.00001685
Si      20.36980670      12.21860605      20.37198314      -0.00001642      -0.00000166      -0.00000824
Si      19.01511987      13.57722850      16.29652313       0.00002891      -0.00000959      -0.00000965
Si      20.36933239      14.93645977      17.65403724      -0.00002151      -0.00000072       0.00000970
Si      16.29309869      16.29402275       0.00070010       0.00002024      -0.00001114       0.00000553
Si      17.65029411      17.65228151       1.35765626       0.00000135      -0.00000017      -0.00000809
Si      16.29186704      19.00985295       2.71412257       0.00002048      -0.00001369      -0.00000189
Si      17.64963967      20.36823254       4.07121122       0.00001728      -0.00000628       0.00000001
Si      19.00869988      16.29476751       2.71457315      -0.00002455      -0.00001235       0.00000120
Si      20.36662742      17.65326961       4.07060330       0.00001680       0.00000060      -0.00000337
Si      19.00817767      19.00991307       0.00053828      -0.00001321      -0.00000113      -0.00000944
Si      20.36595914      20.36778938       1.35748166       0.00000537      -0.00001630       0.00000131
Si      16.29486167      16.29579889       5.42776101       0.00003263      -0.00001244      -0.00000105
Si      17.65331844      17.65421866       6.78440509      -0.00000578      -0.00000408       0.00001099
Si      16.29639478      19.01382940       8.14117060       0.00000155      -0.00000673       0.00000673
Si      17.65331844      20.37059491       9.50078134      -0.00000578      -0.00001099       0.00000408
Si      19.01643061      16.29807039       8.13832653       0.00001667       0.00000610      -0.00001685
Si      20.37023478      17.65527329       9.49972671      -0.00002012       0.00000180      -0.00000180
Si      19.00950199      19.01193525       5.42734490      -0.00001635      -0.00000105       0.00000461
Si      20.36663124      20.36979139       6.78520861       0.00002136       0.00000649      -0.00000649
Si      16.31887509      16.30760214      10.84739786      -0.00001097       0.00000132      -0.00000132
Si      17.66553923      17.66114154      12.21642201      -0.00001302       0.00000460      -0.00000443
Si      16.30648704      19.02016658      13.57444537       0.00003489       0.00001440      -0.00000915
Si      17.65748113      20.37287890      14.93701481      -0.00000895      -0.00000664      -0.00001676
Si      19.01511987      16.29652313      13.57722850       0.00002891      -0.00000965      -0.00000959
Si      20.36933239      17.65403724      14.93645977      -0.00002151       0.00000970      -0.00000072
Si      19.01643061      19.01667347      10.85692961       0.00001667       0.00001685      -0.00000610
Si      20.36980670      20.37198314      12.21860605      -0.00001642      -0.00000824      -0.00000166
Si      16.30144641      16.29176630      16.29176630       0.00000288       0.00001766       0.00001766
Si      17.65480194      17.65165584      17.65165584      -0.00000666      -0.00001141      -0.00001141
Si      16.29387142      19.00839102      19.00839102       0.00000668      -0.00000648      -0.00000648
Si      17.65011754      20.36664552      20.36664552       0.00000099       0.00001411       0.00001411
Si      19.01150762      16.29442102      19.01100742       0.00000074      -0.00001540      -0.00001158
Si      20.36726087      17.65278984      20.36829119       0.00000782      -0.00001676      -0.00000963
Si      19.01150762      19.01100742      16.29442102       0.00000074      -0.00001158      -0.00001540
Si      20.36726087      20.36829119      17.65278984       0.00000782      -0.00000963      -0.00001676
B       12.32820951      13.57750000      13.57750000      -0.00000085      -0.00000000      -0.00000000
