513
Lattice="21.724 0.0 0.0 0.0 21.724 0.0 0.0 0.0 21.724" Properties=species:S:1:pos:R:3:forces:R:3 energy=-2754.298420102338 free_energy=-2754.298420102338 pbc="T T T"
Si       0.00000000       0.00000000       0.00000000       0.00004959       0.00004530       0.00004530
Si       1.35775000       1.35775000       1.35775000       0.00000004       0.00000003       0.00000003
Si       0.00000000       2.71550000       2.71550000       0.00000004      -0.00000000      -0.00000000
Si       1.35775000       4.07325000       4.07325000       0.00000004      -0.00000003      -0.00000003
Si       2.71550000       0.00000000       2.71550000       0.00000040      -0.00000040      -0.00000046
Si       4.07325000       1.35775000       4.07325000      -0.00000058       0.00000050      -0.00000050
Si       2.71550000       2.71550000       0.00000000       0.00000040      -0.00000046      -0.00000040
Si       4.07325000       4.07325000       1.35775000      -0.00000058      -0.00000050       0.00000050
Si       0.00000000       0.00000000       5.43100000       0.00000198       0.00000151      -0.00000151
Si       1.35775000       1.35775000       6.78875000       0.00000253       0.00000307      -0.00000279
Si       0.00000000       2.71550000       8.14650000       0.00002740      -0.00002249      -0.00001473
Si       1.35775000       4.07325000       9.50425000      -0.00007170      -0.00006533      -0.00001103
Si       2.71550000       0.00000000       8.14650000      -0.00017251       0.00011248      -0.00008988
Si       4.07325000       1.35775000       9.50425000      -0.00001816      -0.00007608       0.00022572
Si       2.71550000       2.71550000       5.43100000       0.00000040       0.00000046       0.00000040
Si       4.07325000       4.07325000       6.78875000      -0.00013182      -0.00012778      -0.00013471
Si       0.00000000       0.00000000      10.86200000       0.00003638       0.00007407       0.00029553
Si       1.35775000       1.35775000      12.21975000      -0.00006799      -0.00010846       0.00006465
Si       0.00000000       2.71550000      13.57750000      -0.00019213       0.00000000      -0.00000000
Si       1.35775000       4.07325000      14.93525000      -0.00006799       0.00010846      -0.00006465
Si       2.71550000       0.00000000      13.57750000      -0.00014177       0.00005754      -0.00027428
Si       4.07325000       1.35775000      14.93525000       0.00000755      -0.00002094       0.00013332
Si       2.71550000       2.71550000      10.86200000      -0.00003380       0.00002062       0.00006319
Si       4.07325000       4.07325000      12.21975000       0.00000755       0.00002094      -0.00013332
Si       0.00000000       0.00000000      16.29300000      -0.00009802      -0.00005923      -0.00006819
Si       1.35775000       1.35775000      17.65075000      -0.00007170       0.00006533       0.00001103
Si       0.00000000       2.71550000      19.00850000       0.00002740       0.00002249       0.00001473
Si       1.35775000       4.07325000      20.36625000       0.00000253      -0.00000307       0.00000279
Si       2.71550000       0.00000000      19.00850000       0.00002847      -0.00002717      -0.00006607
Si       4.07325000       1.35775000      20.36625000      -0.00013182       0.00012778       0.00013471
Si       2.71550000       2.71550000      16.29300000      -0.00003380      -0.00002062      -0.00006319
Si       4.07325000       4.07325000      17.65075000      -0.00001816       0.00007608      -0.00022572
Si       0.00000000       5.43100000       0.00000000       0.00000198      -0.00000151       0.00000151
Si       1.35775000       6.78875000       1.35775000       0.00000253      -0.00000279       0.00000307
Si       0.00000000       8.14650000       2.71550000       0.00002740      -0.00001473      -0.00002249
Si       1.35775000       9.50425000       4.07325000      -0.00007170      -0.00001103      -0.00006533
Si       2.71550000       5.43100000       2.71550000       0.00000040       0.00000040       0.00000046
Si       4.07325000       6.78875000       4.07325000      -0.00013182      -0.00013471      -0.00012778
Si       2.71550000       8.14650000       0.00000000      -0.00017251      -0.00008988       0.00011248
Si       4.07325000       9.50425000       1.35775000      -0.00001816       0.00022572      -0.00007608
Si       0.00000000       5.43100000       5.43100000       0.00004959      -0.00004530      -0.00004530
Si       1.35775000       6.78875000       6.78875000      -0.00007184      -0.00004875      -0.00004875
Si       0.00000000       8.14650000       8.14650000       0.00035783      -0.00002910      -0.00002910
Si       1.35775000       9.50425000       9.50425000      -0.00020976      -0.00009740      -0.00009740
Si       2.71550000       5.43100000       8.14650000       0.00002847       0.00002717       0.00006607
Si       4.07325000       6.78875000       9.50425000      -0.00028858      -0.00043242      -0.00018659
Si       2.71550000       8.14650000       5.43100000       0.00002847       0.00006607       0.00002717
Si       4.07325000       9.50425000       6.78875000      -0.00028858      -0.00018659      -0.00043242
Si       0.00000000       5.43100000      10.86200000      -0.00009802       0.00005923       0.00006819
Si       1.35775000       6.78875000      12.21975000      -0.00014639       0.00009300       0.00012500
Si       0.00000000       8.14650000      13.57750000      -0.00039315      -0.00018004       0.00012078
Si       1.35775000       9.50425000      14.93525000      -0.00000174       0.00011388       0.00006059
Si       2.71550000       5.43100000      13.57750000      -0.00014177      -0.00005754       0.00027428
Si       4.07325000       6.78875000      14.93525000      -0.00082750      -0.00113571       0.00011958
Si       2.71550000       8.14650000      10.86200000      -0.00037317      -0.00037315      -0.00009913
Si       4.07325000       9.50425000      12.21975000      -0.00027707       0.00108408      -0.00146170
Si       0.00000000       5.43100000      16.29300000       0.00003638      -0.00007407      -0.00029553
Si       1.35775000       6.78875000      17.65075000       0.00012006       0.00006457      -0.00009950
Si       0.00000000       8.14650000      19.00850000       0.00023804      -0.00004336       0.00004336
Si       1.35775000       9.50425000      20.36625000       0.00012006       0.00009950      -0.00006457
Si       2.71550000       5.43100000      19.00850000      -0.00017251      -0.00011248       0.00008988
Si       4.07325000       6.78875000      20.36625000      -0.00037585      -0.00014618       0.00014618
Si       2.71550000       8.14650000      16.29300000      -0.00018416      -0.00041269      -0.00000013
Si       4.07325000       9.50425000      17.65075000       0.00025961       0.00176135      -0.00176135
Si       0.00000000      10.86200000       0.00000000       0.00003638       0.00029553       0.00007407
Si       1.35775000      12.21975000       1.35775000      -0.00006799       0.00006465      -0.00010846
Si       0.00000000      13.57750000       2.71550000      -0.00019213      -0.00000000       0.00000000
Si       1.35775000      14.93525000       4.07325000      -0.00006799      -0.00006465       0.00010846
Si       2.71550000      10.86200000       2.71550000      -0.00003380       0.00006319       0.00002062
Si       4.07325000      12.21975000       4.07325000       0.00000755      -0.00013332       0.00002094
Si       2.71550000      13.57750000       0.00000000      -0.00014177      -0.00027428       0.00005754
Si       4.07325000      14.93525000       1.35775000       0.00000755       0.00013332      -0.00002094
Si       0.00000000      10.86200000       5.43100000      -0.00009802       0.00006819       0.00005923
Si       1.35775000      12.21975000       6.78875000      -0.00014639       0.00012500       0.00009300
Si       0.00000000      13.57750000       8.14650000      -0.00039315       0.00012078      -0.00018004
Si       1.35775000      14.93525000       9.50425000      -0.00000174       0.00006059       0.00011388
Si       2.71550000      10.86200000       8.14650000      -0.00037317      -0.00009913      -0.00037315
Si       4.07325000      12.21975000       9.50425000      -0.00027707      -0.00146170       0.00108408
Si       2.71550000      13.57750000       5.43100000      -0.00014177       0.00027428      -0.00005754
Si       4.07325000      14.93525000       6.78875000      -0.00082750       0.00011958      -0.00113571
Si       0.00000000      10.86200000      10.86200000       0.00009401       0.00011432       0.00011432
Si       1.35775000      12.21975000      12.21975000       0.00002158       0.00009705       0.00009705
Si       0.00000000      13.57750000      13.57750000       0.00250982      -0.00000000      -0.00000000
Si       1.35775000      14.93525000      14.93525000       0.00002158      -0.00009705      -0.00009705
Si       2.71550000      10.86200000      13.57750000      -0.00026720       0.00013460       0.00018626
Si       4.07325000      12.21975000      14.93525000      -0.00194886       0.00052776      -0.00052776
Si       2.71550000      13.57750000      10.86200000      -0.00026720       0.00018626       0.00013460
Si       4.07325000      14.93525000      12.21975000      -0.00194886      -0.00052776       0.00052776
Si       0.00000000      10.86200000      16.29300000      -0.00043652      -0.00026006       0.00026006
Si       1.35775000      12.21975000      17.65075000      -0.00000174      -0.00006059      -0.00011388
Si       0.00000000      13.57750000      19.00850000      -0.00039315      -0.00012078       0.00018004
Si       1.35775000      14.93525000      20.36625000      -0.00014639      -0.00012500      -0.00009300
Si       2.71550000      10.86200000      19.00850000      -0.00018416       0.00000013       0.00041269
Si       4.07325000      12.21975000      20.36625000      -0.00082750      -0.00011958       0.00113571
Si       2.71550000      13.57750000      16.29300000      -0.00026720      -0.00018626      -0.00013460
Si       4.07325000      14.93525000      17.65075000      -0.00027707       0.00146170      -0.00108408
Si       0.00000000      16.29300000       0.00000000      -0.00009802      -0.00006819      -0.00005923
Si       1.35775000      17.65075000       1.35775000      -0.00007170       0.00001103       0.00006533
Si       0.00000000      19.00850000       2.71550000       0.00002740       0.00001473       0.00002249
Si       1.35775000      20.36625000       4.07325000       0.00000253       0.00000279      -0.00000307
Si       2.71550000      16.29300000       2.71550000      -0.00003380      -0.00006319      -0.00002062
Si       4.07325000      17.65075000       4.07325000      -0.00001816      -0.00022572       0.00007608
Si       2.71550000      19.00850000       0.00000000       0.00002847      -0.00006607      -0.00002717
Si       4.07325000      20.36625000       1.35775000      -0.00013182       0.00013471       0.00012778
Si       0.00000000      16.29300000       5.43100000       0.00003638      -0.00029553      -0.00007407
Si       1.35775000      17.65075000       6.78875000       0.00012006      -0.00009950       0.00006457
Si       0.00000000      19.00850000       8.14650000       0.00023804       0.00004336      -0.00004336
Si       1.35775000      20.36625000       9.50425000       0.00012006      -0.00006457       0.00009950
Si       2.71550000      16.29300000       8.14650000      -0.00018416      -0.00000013      -0.00041269
Si       4.07325000      17.65075000       9.50425000       0.00025961      -0.00176135       0.00176135
Si       2.71550000      19.00850000       5.43100000      -0.00017251       0.00008988      -0.00011248
Si       4.07325000      20.36625000       6.78875000      -0.00037585       0.00014618      -0.00014618
Si       0.00000000      16.29300000      10.86200000      -0.00043652       0.00026006      -0.00026006
Si       1.35775000      17.65075000      12.21975000      -0.00000174      -0.00011388      -0.00006059
Si       0.00000000      19.00850000      13.57750000      -0.00039315       0.00018004      -0.00012078
Si       1.35775000      20.36625000      14.93525000      -0.00014639      -0.00009300      -0.00012500
Si       2.71550000      16.29300000      13.57750000      -0.00026720      -0.00013460      -0.00018626
Si       4.07325000      17.65075000      14.93525000      -0.00027707      -0.00108408       0.00146170
Si       2.71550000      19.00850000      10.86200000      -0.00018416       0.00041269       0.00000013
Si       4.07325000      20.36625000      12.21975000      -0.00082750       0.00113571      -0.00011958
Si       0.00000000      16.29300000      16.29300000       0.00009401      -0.00011432      -0.00011432
Si       1.35775000      17.65075000      17.65075000      -0.00020976       0.00009740       0.00009740
Si       0.00000000      19.00850000      19.00850000       0.00035783       0.00002910       0.00002910
Si       1.35775000      20.36625000      20.36625000      -0.00007184       0.00004875       0.00004875
Si       2.71550000      16.29300000      19.00850000      -0.00037317       0.00009913       0.00037315
Si       4.07325000      17.65075000      20.36625000      -0.00028858       0.00018659       0.00043242
Si       2.71550000      19.00850000      16.29300000      -0.00037317       0.00037315       0.00009913
Si       4.07325000      20.36625000      17.65075000      -0.00028858       0.00043242       0.00018659
Si       5.43100000       0.00000000       0.00000000      -0.00006849       0.00008614       0.00008614
Si       6.78875000       1.35775000       1.35775000      -0.00007235       0.00007889       0.00007889
Si       5.43100000       2.71550000       2.71550000      -0.00000017      -0.00000000      -0.00000000
Si       6.78875000       4.07325000       4.07325000      -0.00007235      -0.00007889      -0.00007889
Si       8.14650000       0.00000000       2.71550000      -0.00001281       0.00003855      -0.00014746
Si       9.50425000       1.35775000       4.07325000       0.00024049      -0.00001620       0.00001620
Si       8.14650000       2.71550000       0.00000000      -0.00001281      -0.00014746       0.00003855
Si       9.50425000       4.07325000       1.35775000       0.00024049       0.00001620      -0.00001620
Si       5.43100000       0.00000000       5.43100000      -0.00013516       0.00016041      -0.00016041
Si       6.78875000       1.35775000       6.78875000      -0.00002225       0.00013795      -0.00002124
Si       5.43100000       2.71550000       8.14650000      -0.00001824       0.00014889      -0.00002937
Si       6.78875000       4.07325000       9.50425000      -0.00036358      -0.00023565      -0.00017343
Si       8.14650000       0.00000000       8.14650000      -0.00030966       0.00006652      -0.00046770
Si       9.50425000       1.35775000       9.50425000       0.00004178      -0.00006870       0.00009607
Si       8.14650000       2.71550000       5.43100000      -0.00001281       0.00014746      -0.00003855
Si       9.50425000       4.07325000       6.78875000       0.00007078       0.00038607      -0.00009973
Si       5.43100000       0.00000000      10.86200000      -0.00080543       0.00053226      -0.00057037
Si       6.78875000       1.35775000      12.21975000      -0.00032305       0.00006074       0.00012602
Si       5.43100000       2.71550000      13.57750000      -0.00008350       0.00000000      -0.00000000
Si       6.78875000       4.07325000      14.93525000      -0.00032305      -0.00006074      -0.00012602
Si       8.14650000       0.00000000      13.57750000       0.00039895       0.00003057      -0.00165834
Si       9.50425000       1.35775000      14.93525000      -0.00008299      -0.00027612       0.00012805
Si       8.14650000       2.71550000      10.86200000      -0.00001835       0.00033332      -0.00022892
Si       9.50425000       4.07325000      12.21975000      -0.00008299       0.00027612      -0.00012805
Si       5.43100000       0.00000000      16.29300000      -0.00063973       0.00047374      -0.00027242
Si       6.78875000       1.35775000      17.65075000      -0.00036358       0.00023565       0.00017343
Si       5.43100000       2.71550000      19.00850000      -0.00001824      -0.00014889       0.00002937
Si       6.78875000       4.07325000      20.36625000      -0.00002225      -0.00013795       0.00002124
Si       8.14650000       0.00000000      19.00850000       0.00150974       0.00007252      -0.00043486
Si       9.50425000       1.35775000      20.36625000       0.00007078      -0.00038607       0.00009973
Si       8.14650000       2.71550000      16.29300000      -0.00001835      -0.00033332       0.00022892
Si       9.50425000       4.07325000      17.65075000       0.00004178       0.00006870      -0.00009607
Si       5.43100000       5.43100000       0.00000000      -0.00013516      -0.00016041       0.00016041
Si       6.78875000       6.78875000       1.35775000      -0.00002225      -0.00002124       0.00013795
Si       5.43100000       8.14650000       2.71550000      -0.00001824      -0.00002937       0.00014889
Si       6.78875000       9.50425000       4.07325000      -0.00036358      -0.00017343      -0.00023565
Si       8.14650000       5.43100000       2.71550000      -0.00001281      -0.00003855       0.00014746
Si       9.50425000       6.78875000       4.07325000       0.00007078      -0.00009973       0.00038607
Si       8.14650000       8.14650000       0.00000000      -0.00030966      -0.00046770       0.00006652
Si       9.50425000       9.50425000       1.35775000       0.00004178       0.00009607      -0.00006870
Si       5.43100000       5.43100000       5.43100000      -0.00006849      -0.00008614      -0.00008614
Si       6.78875000       6.78875000       6.78875000       0.00023599      -0.00019589      -0.00019589
Si       5.43100000       8.14650000       8.14650000       0.00028891       0.00175664       0.00175664
Si       6.78875000       9.50425000       9.50425000      -0.00438260      -0.00318228      -0.00318228
Si       8.14650000       5.43100000       8.14650000       0.00150974      -0.00007252       0.00043486
Si       9.50425000       6.78875000       9.50425000      -0.00322689      -0.00167920      -0.00075049
Si       8.14650000       8.14650000       5.43100000       0.00150974       0.00043486      -0.00007252
Si       9.50425000       9.50425000       6.78875000      -0.00322689      -0.00075049      -0.00167920
Si       5.43100000       5.43100000      10.86200000      -0.00063973      -0.00047374       0.00027242
Si       6.78875000       6.78875000      12.21975000       0.00115742      -0.00019352      -0.00343392
Si       5.43100000       8.14650000      13.57750000       0.00096569       0.00069452       0.00361257
Si       6.78875000       9.50425000      14.93525000      -0.01265940      -0.01650392      -0.00074308
Si       8.14650000       5.43100000      13.57750000       0.00039895      -0.00003057       0.00165834
Si       9.50425000       6.78875000      14.93525000      -0.01147710      -0.01035706       0.00225005
Si       8.14650000       8.14650000      10.86200000      -0.01369840      -0.01396643      -0.00307487
Si       9.50425000       9.50425000      12.21975000       0.05115048       0.01900754      -0.00831375
Si       5.43100000       5.43100000      16.29300000      -0.00080543      -0.00053226       0.00057037
Si       6.78875000       6.78875000      17.65075000       0.00182586       0.00006279      -0.00396230
Si       5.43100000       8.14650000      19.00850000      -0.00062823      -0.00068562       0.00068562
Si       6.78875000       9.50425000      20.36625000       0.00182586       0.00396230      -0.00006279
Si       8.14650000       5.43100000      19.00850000      -0.00030966      -0.00006652       0.00046770
Si       9.50425000       6.78875000      20.36625000       0.00262161      -0.00000881       0.00000881
Si       8.14650000       8.14650000      16.29300000      -0.00153081       0.00058024       0.00341066
Si       9.50425000       9.50425000      17.65075000      -0.02264402      -0.01403625       0.01403625
Si       5.43100000      10.86200000       0.00000000      -0.00080543      -0.00057037       0.00053226
Si       6.78875000      12.21975000       1.35775000      -0.00032305       0.00012602       0.00006074
Si       5.43100000      13.57750000       2.71550000      -0.00008350      -0.00000000       0.00000000
Si       6.78875000      14.93525000       4.07325000      -0.00032305      -0.00012602      -0.00006074
Si       8.14650000      10.86200000       2.71550000      -0.00001835      -0.00022892       0.00033332
Si       9.50425000      12.21975000       4.07325000      -0.00008299      -0.00012805       0.00027612
Si       8.14650000      13.57750000       0.00000000       0.00039895      -0.00165834       0.00003057
Si       9.50425000      14.93525000       1.35775000      -0.00008299       0.00012805      -0.00027612
Si       5.43100000      10.86200000       5.43100000      -0.00063973       0.00027242      -0.00047374
Si       6.78875000      12.21975000       6.78875000       0.00115742      -0.00343392      -0.00019352
Si       5.43100000      13.57750000       8.14650000       0.00096569       0.00361257       0.00069452
Si       6.78875000      14.93525000       9.50425000      -0.01265940      -0.00074308      -0.01650392
Si       8.14650000      10.86200000       8.14650000      -0.01369840      -0.00307487      -0.01396643
Si       9.50425000      12.21975000       9.50425000       0.05115048      -0.00831375       0.01900754
Si       8.14650000      13.57750000       5.43100000       0.00039895       0.00165834      -0.00003057
Si       9.50425000      14.93525000       6.78875000      -0.01147710       0.00225005      -0.01035706
Si       5.43100000      10.86200000      10.86200000      -0.00698218      -0.01034573      -0.01034573
Si       6.78875000      12.21975000      12.21975000      -0.00923772       0.00120947       0.00120947
Si       5.43100000      13.57750000      13.57750000      -0.01878968      -0.00000000      -0.00000000
Si       6.78875000      14.93525000      14.93525000      -0.00923772      -0.00120947      -0.00120947
Si       8.14650000      10.86200000      13.57750000       0.04963026       0.04841498      -0.01574761
Si       9.50425000      12.21975000      14.93525000      -0.01555765       0.11965463      -0.11965463
Si       8.14650000      13.57750000      10.86200000       0.04963026      -0.01574761       0.04841498
Si       9.50425000      14.93525000      12.21975000      -0.01555765      -0.11965463       0.11965463
Si       5.43100000      10.86200000      16.29300000      -0.00494444      -0.00421947       0.00421947
Si       6.78875000      12.21975000      17.65075000      -0.01265940       0.00074308       0.01650392
Si       5.43100000      13.57750000      19.00850000       0.00096569      -0.00361257      -0.00069452
Si       6.78875000      14.93525000      20.36625000       0.00115742       0.00343392       0.00019352
Si       8.14650000      10.86200000      19.00850000      -0.00153081      -0.00341066      -0.00058024
Si       9.50425000      12.21975000      20.36625000      -0.01147710      -0.00225005       0.01035706
Si       8.14650000      13.57750000      16.29300000       0.04963026       0.01574761      -0.04841498
Si       9.50425000      14.93525000      17.65075000       0.05115048       0.00831375      -0.01900754
Si       5.43100000      16.29300000       0.00000000      -0.00063973      -0.00027242       0.00047374
Si       6.78875000      17.65075000       1.35775000      -0.00036358       0.00017343       0.00023565
Si       5.43100000      19.00850000       2.71550000      -0.00001824       0.00002937      -0.00014889
Si       6.78875000      20.36625000       4.07325000      -0.00002225       0.00002124      -0.00013795
Si       8.14650000      16.29300000       2.71550000      -0.00001835       0.00022892      -0.00033332
Si       9.50425000      17.65075000       4.07325000       0.00004178      -0.00009607       0.00006870
Si       8.14650000      19.00850000       0.00000000       0.00150974      -0.00043486       0.00007252
Si       9.50425000      20.36625000       1.35775000       0.00007078       0.00009973      -0.00038607
Si       5.43100000      16.29300000       5.43100000      -0.00080543       0.00057037      -0.00053226
Si       6.78875000      17.65075000       6.78875000       0.00182586      -0.00396230       0.00006279
Si       5.43100000      19.00850000       8.14650000      -0.00062823       0.00068562      -0.00068562
Si       6.78875000      20.36625000       9.50425000       0.00182586      -0.00006279       0.00396230
Si       8.14650000      16.29300000       8.14650000      -0.00153081       0.00341066       0.00058024
Si       9.50425000      17.65075000       9.50425000      -0.02264402       0.01403625      -0.01403625
Si       8.14650000      19.00850000       5.43100000      -0.00030966       0.00046770      -0.00006652
Si       9.50425000      20.36625000       6.78875000       0.00262161       0.00000881      -0.00000881
Si       5.43100000      16.29300000      10.86200000      -0.00494444       0.00421947      -0.00421947
Si       6.78875000      17.65075000      12.21975000      -0.01265940       0.01650392       0.00074308
Si       5.43100000      19.00850000      13.57750000       0.00096569      -0.00069452      -0.00361257
Si       6.78875000      20.36625000      14.93525000       0.00115742       0.00019352       0.00343392
Si       8.14650000      16.29300000      13.57750000       0.04963026      -0.04841498       0.01574761
Si       9.50425000      17.65075000      14.93525000       0.05115048      -0.01900754       0.00831375
Si       8.14650000      19.00850000      10.86200000      -0.00153081      -0.00058024      -0.00341066
Si       9.50425000      20.36625000      12.21975000      -0.01147710       0.01035706      -0.00225005
Si       5.43100000      16.29300000      16.29300000      -0.00698218       0.01034573       0.01034573
Si       6.78875000      17.65075000      17.65075000      -0.00438260       0.00318228       0.00318228
Si       5.43100000      19.00850000      19.00850000       0.00028891      -0.00175664      -0.00175664
Si       6.78875000      20.36625000      20.36625000       0.00023599       0.00019589       0.00019589
Si       8.14650000      16.29300000      19.00850000      -0.01369840       0.00307487       0.01396643
Si       9.50425000      17.65075000      20.36625000      -0.00322689       0.00075049       0.00167920
Si       8.14650000      19.00850000      16.29300000      -0.01369840       0.01396643       0.00307487
Si       9.50425000      20.36625000      17.65075000      -0.00322689       0.00167920       0.00075049
Si      10.86200000       0.00000000       0.00000000      -0.00033082       0.00020457       0.00020457
Si      12.21975000       1.35775000       1.35775000      -0.00005382      -0.00017837      -0.00017837
Si      10.86200000       2.71550000       2.71550000       0.00005264       0.00000000      -0.00000000
Si      12.21975000       4.07325000       4.07325000      -0.00005382       0.00017837       0.00017837
Si      13.57750000       0.00000000       2.71550000      -0.00009571      -0.00024245      -0.00004382
Si      14.93525000       1.35775000       4.07325000       0.00004180      -0.00004875       0.00004875
Si      13.57750000       2.71550000       0.00000000      -0.00009571      -0.00004382      -0.00024245
Si      14.93525000       4.07325000       1.35775000       0.00004180       0.00004875      -0.00004875
Si      10.86200000       0.00000000       5.43100000      -0.00030033       0.00031827      -0.00031827
Si      12.21975000       1.35775000       6.78875000       0.00031847       0.00016057      -0.00016305
Si      10.86200000       2.71550000       8.14650000      -0.00002655       0.00004443      -0.00008149
Si      12.21975000       4.07325000       9.50425000      -0.00006055       0.00009160      -0.00017964
Si      13.57750000       0.00000000       8.14650000      -0.00105571      -0.00007754      -0.00063495
Si      14.93525000       1.35775000       9.50425000      -0.00007078       0.00062674      -0.00042687
Si      13.57750000       2.71550000       5.43100000      -0.00009571       0.00004382       0.00024245
Si      14.93525000       4.07325000       6.78875000       0.00002407      -0.00041013      -0.00040419
Si      10.86200000       0.00000000      10.86200000      -0.00264810       0.00430085      -0.00059273
Si      12.21975000       1.35775000      12.21975000       0.00028544       0.00026820      -0.00003364
Si      10.86200000       2.71550000      13.57750000       0.00019367      -0.00000000      -0.00000000
Si      12.21975000       4.07325000      14.93525000       0.00028544      -0.00026820       0.00003364
Si      13.57750000       0.00000000      13.57750000       0.00067054       0.00183280       0.00143976
Si      14.93525000       1.35775000      14.93525000       0.00009036      -0.00094931       0.00008851
Si      13.57750000       2.71550000      10.86200000       0.00014984      -0.00045018       0.00029380
Si      14.93525000       4.07325000      12.21975000       0.00009036       0.00094931      -0.00008851
Si      10.86200000       0.00000000      16.29300000       0.00096015      -0.00145557      -0.00093702
Si      12.21975000       1.35775000      17.65075000      -0.00006055      -0.00009160       0.00017964
Si      10.86200000       2.71550000      19.00850000      -0.00002655      -0.00004443       0.00008149
Si      12.21975000       4.07325000      20.36625000       0.00031847      -0.00016057       0.00016305
Si      13.57750000       0.00000000      19.00850000      -0.00000472      -0.00022786       0.00013174
Si      14.93525000       1.35775000      20.36625000       0.00002407       0.00041013       0.00040419
Si      13.57750000       2.71550000      16.29300000       0.00014984       0.00045018      -0.00029380
Si      14.93525000       4.07325000      17.65075000      -0.00007078      -0.00062674       0.00042687
Si      10.86200000       5.43100000       0.00000000      -0.00030033      -0.00031827       0.00031827
Si      12.21975000       6.78875000       1.35775000       0.00031847      -0.00016305       0.00016057
Si      10.86200000       8.14650000       2.71550000      -0.00002655      -0.00008149       0.00004443
Si      12.21975000       9.50425000       4.07325000      -0.00006055      -0.00017964       0.00009160
Si      13.57750000       5.43100000       2.71550000      -0.00009571       0.00024245       0.00004382
Si      14.93525000       6.78875000       4.07325000       0.00002407      -0.00040419      -0.00041013
Si      13.57750000       8.14650000       0.00000000      -0.00105571      -0.00063495      -0.00007754
Si      14.93525000       9.50425000       1.35775000      -0.00007078      -0.00042687       0.00062674
Si      10.86200000       5.43100000       5.43100000      -0.00033082      -0.00020457      -0.00020457
Si      12.21975000       6.78875000       6.78875000      -0.00141340       0.00015186       0.00015186
Si      10.86200000       8.14650000       8.14650000      -0.00473564      -0.00317325      -0.00317325
Si      12.21975000       9.50425000       9.50425000       0.03075999       0.01005852       0.01005852
Si      13.57750000       5.43100000       8.14650000      -0.00000472       0.00022786      -0.00013174
Si      14.93525000       6.78875000       9.50425000      -0.00006068      -0.00185142      -0.00482107
Si      13.57750000       8.14650000       5.43100000      -0.00000472      -0.00013174       0.00022786
Si      14.93525000       9.50425000       6.78875000      -0.00006068      -0.00482107      -0.00185142
Si      10.86200000       5.43100000      10.86200000       0.00096015       0.00145557       0.00093702
Si      12.21975000       6.78875000      12.21975000      -0.00985498      -0.01512707      -0.00640815
Si      10.86200000       8.14650000      13.57750000      -0.00627531       0.00278946       0.00652952
Si      12.21975000       9.50425000      14.93525000       0.02723873       0.04022114      -0.00400348
Si      13.57750000       5.43100000      13.57750000       0.00067054      -0.00183280      -0.00143976
Si      14.93525000       6.78875000      14.93525000       0.00466504      -0.00690486       0.00669895
Si      13.57750000       8.14650000      10.86200000       0.00139330      -0.00986775      -0.01722208
Si      14.93525000       9.50425000      12.21975000      -0.01889447       0.01922050      -0.00928940
Si      10.86200000       5.43100000      16.29300000      -0.00264810      -0.00430085       0.00059273
Si      12.21975000       6.78875000      17.65075000       0.00587090      -0.00639773       0.00396578
Si      10.86200000       8.14650000      19.00850000      -0.01162582      -0.00119533       0.00119533
Si      12.21975000       9.50425000      20.36625000       0.00587090      -0.00396578       0.00639773
Si      13.57750000       5.43100000      19.00850000      -0.00105571       0.00007754       0.00063495
Si      14.93525000       6.78875000      20.36625000       0.00026923      -0.00020036       0.00020036
Si      13.57750000       8.14650000      16.29300000       0.00065931      -0.00822244       0.01005899
Si      14.93525000       9.50425000      17.65075000       0.00030197      -0.00732929       0.00732929
Si      10.86200000      10.86200000       0.00000000      -0.00264810      -0.00059273       0.00430085
Si      12.21975000      12.21975000       1.35775000       0.00028544      -0.00003364       0.00026820
Si      10.86200000      13.57750000       2.71550000       0.00019367      -0.00000000      -0.00000000
Si      12.21975000      14.93525000       4.07325000       0.00028544       0.00003364      -0.00026820
Si      13.57750000      10.86200000       2.71550000       0.00014984       0.00029380      -0.00045018
Si      14.93525000      12.21975000       4.07325000       0.00009036      -0.00008851       0.00094931
Si      13.57750000      13.57750000       0.00000000       0.00067054       0.00143976       0.00183280
Si      14.93525000      14.93525000       1.35775000       0.00009036       0.00008851      -0.00094931
Si      10.86200000      10.86200000       5.43100000       0.00096015       0.00093702       0.00145557
Si      12.21975000      12.21975000       6.78875000      -0.00985498      -0.00640815      -0.01512707
Si      10.86200000      13.57750000       8.14650000      -0.00627531       0.00652952       0.00278946
Si      12.21975000      14.93525000       9.50425000       0.02723873      -0.00400348       0.04022114
Si      13.57750000      10.86200000       8.14650000       0.00139330      -0.01722208      -0.00986775
Si      14.93525000      12.21975000       9.50425000      -0.01889447      -0.00928940       0.01922050
Si      13.57750000      13.57750000       5.43100000       0.00067054      -0.00143976      -0.00183280
Si      14.93525000      14.93525000       6.78875000       0.00466504       0.00669895      -0.00690486
Si      10.86200000      10.86200000      10.86200000      -0.23454680       0.05345615       0.05345615
Si      12.21975000      12.21975000      12.21975000       0.44194239      -0.23519267      -0.23519267
Si      10.86200000      13.57750000      13.57750000     -30.14794287      -0.00000000      -0.00000000
Si      12.21975000      14.93525000      14.93525000       0.44194239       0.23519267       0.23519267
Si      13.57750000      10.86200000      13.57750000       0.19688326      -0.30455575      -0.02625210
Si      14.93525000      12.21975000      14.93525000       0.02311142       0.03217996      -0.03217996
Si      13.57750000      13.57750000      10.86200000       0.19688326      -0.02625210      -0.30455575
Si      14.93525000      14.93525000      12.21975000       0.02311142      -0.03217996       0.03217996
Si      10.86200000      10.86200000      16.29300000       0.05672787      -0.04242533       0.04242533
Si      12.21975000      12.21975000      17.65075000       0.02723873       0.00400348      -0.04022114
Si      10.86200000      13.57750000      19.00850000      -0.00627531      -0.00652952      -0.00278946
Si      12.21975000      14.93525000      20.36625000      -0.00985498       0.00640815       0.01512707
Si      13.57750000      10.86200000      19.00850000       0.00065931      -0.01005899       0.00822244
Si      14.93525000      12.21975000      20.36625000       0.00466504      -0.00669895       0.00690486
Si      13.57750000      13.57750000      16.29300000       0.19688326       0.02625210       0.30455575
Si      14.93525000      14.93525000      17.65075000      -0.01889447       0.00928940      -0.01922050
Si      10.86200000      16.29300000       0.00000000       0.00096015      -0.00093702      -0.00145557
Si      12.21975000      17.65075000       1.35775000      -0.00006055       0.00017964      -0.00009160
Si      10.86200000      19.00850000       2.71550000      -0.00002655       0.00008149      -0.00004443
Si      12.21975000      20.36625000       4.07325000       0.00031847       0.00016305      -0.00016057
Si      13.57750000      16.29300000       2.71550000       0.00014984      -0.00029380       0.00045018
Si      14.93525000      17.65075000       4.07325000      -0.00007078       0.00042687      -0.00062674
Si      13.57750000      19.00850000       0.00000000      -0.00000472       0.00013174      -0.00022786
Si      14.93525000      20.36625000       1.35775000       0.00002407       0.00040419       0.00041013
Si      10.86200000      16.29300000       5.43100000      -0.00264810       0.00059273      -0.00430085
Si      12.21975000      17.65075000       6.78875000       0.00587090       0.00396578      -0.00639773
Si      10.86200000      19.00850000       8.14650000      -0.01162582       0.00119533      -0.00119533
Si      12.21975000      20.36625000       9.50425000       0.00587090       0.00639773      -0.00396578
Si      13.57750000      16.29300000       8.14650000       0.00065931       0.01005899      -0.00822244
Si      14.93525000      17.65075000       9.50425000       0.00030197       0.00732929      -0.00732929
Si      13.57750000      19.00850000       5.43100000      -0.00105571       0.00063495       0.00007754
Si      14.93525000      20.36625000       6.78875000       0.00026923       0.00020036      -0.00020036
Si      10.86200000      16.29300000      10.86200000       0.05672787       0.04242533      -0.04242533
Si      12.21975000      17.65075000      12.21975000       0.02723873      -0.04022114       0.00400348
Si      10.86200000      19.00850000      13.57750000      -0.00627531      -0.00278946      -0.00652952
Si      12.21975000      20.36625000      14.93525000      -0.00985498       0.01512707       0.00640815
Si      13.57750000      16.29300000      13.57750000       0.19688326       0.30455575       0.02625210
Si      14.93525000      17.65075000      14.93525000      -0.01889447      -0.01922050       0.00928940
Si      13.57750000      19.00850000      10.86200000       0.00065931       0.00822244      -0.01005899
Si      14.93525000      20.36625000      12.21975000       0.00466504       0.00690486      -0.00669895
Si      10.86200000      16.29300000      16.29300000      -0.23454680      -0.05345615      -0.05345615
Si      12.21975000      17.65075000      17.65075000       0.03075999      -0.01005852      -0.01005852
Si      10.86200000      19.00850000      19.00850000      -0.00473564       0.00317325       0.00317325
Si      12.21975000      20.36625000      20.36625000      -0.00141340      -0.00015186      -0.00015186
Si      13.57750000      16.29300000      19.00850000       0.00139330       0.01722208       0.00986775
Si      14.93525000      17.65075000      20.36625000      -0.00006068       0.00482107       0.00185142
Si      13.57750000      19.00850000      16.29300000       0.00139330       0.00986775       0.01722208
Si      14.93525000      20.36625000      17.65075000      -0.00006068       0.00185142       0.00482107
Si      16.29300000       0.00000000       0.00000000      -0.00022505       0.00010510       0.00010510
Si      17.65075000       1.35775000       1.35775000      -0.00002891       0.00000123       0.00000123
Si      16.29300000       2.71550000       2.71550000       0.00000376       0.00000000       0.00000000
Si      17.65075000       4.07325000       4.07325000      -0.00002891      -0.00000123      -0.00000123
Si      19.00850000       0.00000000       2.71550000       0.00001925       0.00002508       0.00002925
Si      20.36625000       1.35775000       4.07325000       0.00000261       0.00000322      -0.00000322
Si      19.00850000       2.71550000       0.00000000       0.00001925       0.00002925       0.00002508
Si      20.36625000       4.07325000       1.35775000       0.00000261      -0.00000322       0.00000322
Si      16.29300000       0.00000000       5.43100000      -0.00027578       0.00021417      -0.00021417
Si      17.65075000       1.35775000       6.78875000       0.00000358       0.00021928      -0.00013799
Si      16.29300000       2.71550000       8.14650000      -0.00008714       0.00001197       0.00011166
Si      17.65075000       4.07325000       9.50425000      -0.00001576      -0.00011327       0.00002124
Si      19.00850000       0.00000000       8.14650000       0.00009919       0.00030107       0.00015457
Si      20.36625000       1.35775000       9.50425000       0.00006808       0.00010652       0.00002587
Si      19.00850000       2.71550000       5.43100000       0.00001925      -0.00002925      -0.00002508
Si      20.36625000       4.07325000       6.78875000      -0.00002162       0.00000568       0.00002489
Si      16.29300000       0.00000000      10.86200000      -0.00122465      -0.00165049       0.00193529
Si      17.65075000       1.35775000      12.21975000       0.00034794       0.00028058       0.00030043
Si      16.29300000       2.71550000      13.57750000      -0.00009247      -0.00000000      -0.00000000
Si      17.65075000       4.07325000      14.93525000       0.00034794      -0.00028058      -0.00030043
Si      19.00850000       0.00000000      13.57750000       0.00081229       0.00053783      -0.00050424
Si      20.36625000       1.35775000      14.93525000      -0.00006513       0.00007654      -0.00025913
Si      19.00850000       2.71550000      10.86200000      -0.00020778       0.00006151       0.00029642
Si      20.36625000       4.07325000      12.21975000      -0.00006513      -0.00007654       0.00025913
Si      16.29300000       0.00000000      16.29300000      -0.00004408       0.00196038       0.00085844
Si      17.65075000       1.35775000      17.65075000      -0.00001576       0.00011327      -0.00002124
Si      16.29300000       2.71550000      19.00850000      -0.00008714      -0.00001197      -0.00011166
Si      17.65075000       4.07325000      20.36625000       0.00000358      -0.00021928       0.00013799
Si      19.00850000       0.00000000      19.00850000       0.00000034       0.00017889      -0.00035396
Si      20.36625000       1.35775000      20.36625000      -0.00002162      -0.00000568      -0.00002489
Si      19.00850000       2.71550000      16.29300000      -0.00020778      -0.00006151      -0.00029642
Si      20.36625000       4.07325000      17.65075000       0.00006808      -0.00010652      -0.00002587
Si      16.29300000       5.43100000       0.00000000      -0.00027578      -0.00021417       0.00021417
Si      17.65075000       6.78875000       1.35775000       0.00000358      -0.00013799       0.00021928
Si      16.29300000       8.14650000       2.71550000      -0.00008714       0.00011166       0.00001197
Si      17.65075000       9.50425000       4.07325000      -0.00001576       0.00002124      -0.00011327
Si      19.00850000       5.43100000       2.71550000       0.00001925      -0.00002508      -0.00002925
Si      20.36625000       6.78875000       4.07325000      -0.00002162       0.00002489       0.00000568
Si      19.00850000       8.14650000       0.00000000       0.00009919       0.00015457       0.00030107
Si      20.36625000       9.50425000       1.35775000       0.00006808       0.00002587       0.00010652
Si      16.29300000       5.43100000       5.43100000      -0.00022505      -0.00010510      -0.00010510
Si      17.65075000       6.78875000       6.78875000      -0.00097362       0.00035164       0.00035164
Si      16.29300000       8.14650000       8.14650000       0.00060766      -0.00148492      -0.00148492
Si      17.65075000       9.50425000       9.50425000      -0.00017704      -0.00012022      -0.00012022
Si      19.00850000       5.43100000       8.14650000       0.00000034      -0.00017889       0.00035396
Si      20.36625000       6.78875000       9.50425000       0.00015191      -0.00037242       0.00022539
Si      19.00850000       8.14650000       5.43100000       0.00000034       0.00035396      -0.00017889
Si      20.36625000       9.50425000       6.78875000       0.00015191       0.00022539      -0.00037242
Si      16.29300000       5.43100000      10.86200000      -0.00004408      -0.00196038      -0.00085844
Si      17.65075000       6.78875000      12.21975000       0.00135050       0.00049770       0.00058814
Si      16.29300000       8.14650000      13.57750000       0.01239581      -0.01606228      -0.00279447
Si      17.65075000       9.50425000      14.93525000       0.01691670      -0.01572516       0.01307570
Si      19.00850000       5.43100000      13.57750000       0.00081229      -0.00053783       0.00050424
Si      20.36625000       6.78875000      14.93525000       0.00038816      -0.00060873      -0.00023451
Si      19.00850000       8.14650000      10.86200000      -0.00051357       0.00147251       0.00016603
Si      20.36625000       9.50425000      12.21975000      -0.00063962      -0.00019142       0.00048666
Si      16.29300000       5.43100000      16.29300000      -0.00122465       0.00165049      -0.00193529
Si      17.65075000       6.78875000      17.65075000       0.00011505       0.00085817      -0.00014436
Si      16.29300000       8.14650000      19.00850000      -0.00370558       0.00106754      -0.00106754
Si      17.65075000       9.50425000      20.36625000       0.00011505       0.00014436      -0.00085817
Si      19.00850000       5.43100000      19.00850000       0.00009919      -0.00030107      -0.00015457
Si      20.36625000       6.78875000      20.36625000       0.00010290       0.00001700      -0.00001700
Si      19.00850000       8.14650000      16.29300000       0.00054258      -0.00085966      -0.00227509
Si      20.36625000       9.50425000      17.65075000      -0.00119568       0.00038179      -0.00038179
Si      16.29300000      10.86200000       0.00000000      -0.00122465       0.00193529      -0.00165049
Si      17.65075000      12.21975000       1.35775000       0.00034794       0.00030043       0.00028058
Si      16.29300000      13.57750000       2.71550000      -0.00009247      -0.00000000      -0.00000000
Si      17.65075000      14.93525000       4.07325000       0.00034794      -0.00030043      -0.00028058
Si      19.00850000      10.86200000       2.71550000      -0.00020778       0.00029642       0.00006151
Si      20.36625000      12.21975000       4.07325000      -0.00006513       0.00025913      -0.00007654
Si      19.00850000      13.57750000       0.00000000       0.00081229      -0.00050424       0.00053783
Si      20.36625000      14.93525000       1.35775000      -0.00006513      -0.00025913       0.00007654
Si      16.29300000      10.86200000       5.43100000      -0.00004408      -0.00085844      -0.00196038
Si      17.65075000      12.21975000       6.78875000       0.00135050       0.00058814       0.00049770
Si      16.29300000      13.57750000       8.14650000       0.01239581      -0.00279447      -0.01606228
Si      17.65075000      14.93525000       9.50425000       0.01691670       0.01307570      -0.01572516
Si      19.00850000      10.86200000       8.14650000      -0.00051357       0.00016603       0.00147251
Si      20.36625000      12.21975000       9.50425000      -0.00063962       0.00048666      -0.00019142
Si      19.00850000      13.57750000       5.43100000       0.00081229       0.00050424      -0.00053783
Si      20.36625000      14.93525000       6.78875000       0.00038816      -0.00023451      -0.00060873
Si      16.29300000      10.86200000      10.86200000      -0.01253854       0.01198542       0.01198542
Si      17.65075000      12.21975000      12.21975000       0.00497026      -0.00984444      -0.00984444
Si      16.29300000      13.57750000      13.57750000      -0.12881378      -0.00000000      -0.00000000
Si      17.65075000      14.93525000      14.93525000       0.00497026       0.00984444       0.00984444
Si      19.00850000      10.86200000      13.57750000       0.01369487      -0.01076925      -0.00769623
Si      20.36625000      12.21975000      14.93525000       0.00779496      -0.00252249       0.00252249
Si      19.00850000      13.57750000      10.86200000       0.01369487      -0.00769623      -0.01076925
Si      20.36625000      14.93525000      12.21975000       0.00779496       0.00252249      -0.00252249
Si      16.29300000      10.86200000      16.29300000       0.02641864      -0.03621501       0.03621501
Si      17.65075000      12.21975000      17.65075000       0.01691670      -0.01307570       0.01572516
Si      16.29300000      13.57750000      19.00850000       0.01239581       0.00279447       0.01606228
Si      17.65075000      14.93525000      20.36625000       0.00135050      -0.00058814      -0.00049770
Si      19.00850000      10.86200000      19.00850000       0.00054258       0.00227509       0.00085966
Si      20.36625000      12.21975000      20.36625000       0.00038816       0.00023451       0.00060873
Si      19.00850000      13.57750000      16.29300000       0.01369487       0.00769623       0.01076925
Si      20.36625000      14.93525000      17.65075000      -0.00063962      -0.00048666       0.00019142
Si      16.29300000      16.29300000       0.00000000      -0.00004408       0.00085844       0.00196038
Si      17.65075000      17.65075000       1.35775000      -0.00001576      -0.00002124       0.00011327
Si      16.29300000      19.00850000       2.71550000      -0.00008714      -0.00011166      -0.00001197
Si      17.65075000      20.36625000       4.07325000       0.00000358       0.00013799      -0.00021928
Si      19.00850000      16.29300000       2.71550000      -0.00020778      -0.00029642      -0.00006151
Si      20.36625000      17.65075000       4.07325000       0.00006808      -0.00002587      -0.00010652
Si      19.00850000      19.00850000       0.00000000       0.00000034      -0.00035396       0.00017889
Si      20.36625000      20.36625000       1.35775000      -0.00002162      -0.00002489      -0.00000568
Si      16.29300000      16.29300000       5.43100000      -0.00122465      -0.00193529       0.00165049
Si      17.65075000      17.65075000       6.78875000       0.00011505      -0.00014436       0.00085817
Si      16.29300000      19.00850000       8.14650000      -0.00370558      -0.00106754       0.00106754
Si      17.65075000      20.36625000       9.50425000       0.00011505      -0.00085817       0.00014436
Si      19.00850000      16.29300000       8.14650000       0.00054258      -0.00227509      -0.00085966
Si      20.36625000      17.65075000       9.50425000      -0.00119568      -0.00038179       0.00038179
Si      19.00850000      19.00850000       5.43100000       0.00009919      -0.00015457      -0.00030107
Si      20.36625000      20.36625000       6.78875000       0.00010290      -0.00001700       0.00001700
Si      16.29300000      16.29300000      10.86200000       0.02641864       0.03621501      -0.03621501
Si      17.65075000      17.65075000      12.21975000       0.01691670       0.01572516      -0.01307570
Si      16.29300000      19.00850000      13.57750000       0.01239581       0.01606228       0.00279447
Si      17.65075000      20.36625000      14.93525000       0.00135050      -0.00049770      -0.00058814
Si      19.00850000      16.29300000      13.57750000       0.01369487       0.01076925       0.00769623
Si      20.36625000      17.65075000      14.93525000      -0.00063962       0.00019142      -0.00048666
Si      19.00850000      19.00850000      10.86200000       0.00054258       0.00085966       0.00227509
Si      20.36625000      20.36625000      12.21975000       0.00038816       0.00060873       0.00023451
Si      16.29300000      16.29300000      16.29300000      -0.01253854      -0.01198542      -0.01198542
Si      17.65075000      17.65075000      17.65075000      -0.00017704       0.00012022       0.00012022
Si      16.29300000      19.00850000      19.00850000       0.00060766       0.00148492       0.00148492
Si      17.65075000      20.36625000      20.36625000      -0.00097362      -0.00035164      -0.00035164
Si      19.00850000      16.29300000      19.00850000      -0.00051357      -0.00016603      -0.00147251
Si      20.36625000      17.65075000      20.36625000       0.00015191      -0.00022539       0.00037242
Si      19.00850000      19.00850000      16.29300000      -0.00051357      -0.00147251      -0.00016603
Si      20.36625000      20.36625000      17.65075000       0.00015191       0.00037242      -0.00022539
B       12.21975000      13.57750000      13.57750000      28.56789613      -0.00000000      -0.00000000
