67
Lattice="10.862 0.0 0.0 0.0 10.862 0.0 0.0 0.0 10.862" Properties=species:S:1:pos:R:3:forces:R:3 energy=-360.0169019895524 free_energy=-360.0169019895524 pbc="T T T"
Si       0.00233990       0.01597529      -0.00545794      -0.00000327      -0.00000059       0.00000421
Si       0.01605348       2.72249401       2.71693403      -0.00000085       0.00000335       0.00000014
Si       2.71510065       2.70335268      -0.00853155       0.00000052       0.00000222      -0.00000180
Si       2.76316421       0.01874384       2.67976139      -0.00000301       0.00000324      -0.00000389
Si       4.09362013       1.36858168       4.05482082       0.00000194      -0.00000171       0.00000110
Si       1.36312192       1.36076123       1.35459238       0.00000267       0.00000154       0.00000093
Si       1.37541762       4.09462188       4.06819771       0.00000001       0.00000060      -0.00000162
Si       4.08533534       4.04847537       1.32455563       0.00000124       0.00000148       0.00000087
Si       0.08980558      -0.04513745       5.40189453      -0.00000072       0.00000010      -0.00000060
Si      -0.01572539       2.71614433       8.13040070       0.00000109       0.00000303      -0.00000217
Si       2.72169525       2.71801976       5.41095248       0.00000133       0.00000015       0.00000068
Si       2.66142889       0.04404664       8.17479688       0.00000743      -0.00000347      -0.00000276
Si       4.07481001       1.37399874       9.49133003      -0.00000476      -0.00000125      -0.00000265
Si       1.35588136       1.37552860       6.76880088      -0.00000112      -0.00000018       0.00000351
Si       1.34047898       4.04555762       9.51021676      -0.00000297       0.00000164       0.00000207
Si       4.04288381       4.07614387       6.77449851      -0.00000166      -0.00000448      -0.00000513
Si      -0.01976770       5.40909316      -0.00809845      -0.00000096      -0.00000057       0.00000112
Si       0.01601664       8.14123154       2.66965226      -0.00000051      -0.00000292      -0.00000114
Si       2.71689310       8.15889664      -0.00050635      -0.00000069      -0.00000231      -0.00000016
Si       2.68451923       5.38028520       2.62242476      -0.00000174       0.00000165       0.00000188
Si       4.13033700       6.74130216       3.78358287       0.00000119       0.00000079       0.00000293
Si       1.34612324       6.78102073       1.31641684       0.00000213      -0.00000399      -0.00000003
Si       1.45260954       9.44428178       3.98104984       0.00000507       0.00000247       0.00000000
Si       4.11224359       9.52424374       1.31452080       0.00000159      -0.00000163       0.00000125
Si      -0.00279169       5.44104749       5.41481501      -0.00000035       0.00000377      -0.00000040
Si      -0.07659657       8.14167087       8.21643945       0.00000029       0.00000071      -0.00000070
Si       2.15930861       8.58921179       6.14983180       0.00000065       0.00000062       0.00000065
Si       2.70128611       5.41286753       8.17500719       0.00000085      -0.00000126       0.00000069
Si       4.04920224       6.77828094       9.53572918       0.00000647       0.00000240      -0.00000263
Si       1.19900123       6.69438412       6.95650113       0.00000322       0.00000096       0.00000735
Si       1.34153134       9.50124507       9.51161643      -0.00000171      -0.00000029      -0.00000140
Si       4.25271722       9.75910453       6.98843183      -0.00000364       0.00000465      -0.00000177
Si       5.46041505       0.02243361      -0.03847561       0.00000019       0.00000168      -0.00000217
Si       5.45397328       2.73364121       2.70771195      -0.00000021       0.00000332      -0.00000225
Si       8.14954003       2.72633917      -0.02165999      -0.00000115      -0.00000118       0.00000095
Si       8.17180273       0.02059710       2.69583624       0.00000086       0.00000190       0.00000192
Si       9.54513715       1.34715632       4.07120268       0.00000436       0.00000354       0.00000031
Si       6.80817446       1.37575680       1.34038713       0.00000147       0.00000115      -0.00000098
Si       6.79395176       4.12379160       4.07773702      -0.00000154      -0.00000077      -0.00000060
Si       9.50248129       4.06137967       1.35942758      -0.00000035      -0.00000347       0.00000205
Si       5.48381856       0.05262506       5.39564744       0.00000277       0.00000276       0.00000283
Si       5.42273526       2.73117353       8.11688929      -0.00000174       0.00000195      -0.00000124
Si       8.16804877       2.73521318       5.40561603      -0.00000005       0.00000046       0.00000259
Si       8.15390520       0.01826193       8.10650357      -0.00000009      -0.00000172      -0.00000095
Si       9.50075056       1.36053956       9.48978102       0.00000166      -0.00000159      -0.00000039
Si       6.81292586       1.39426253       6.76107134      -0.00000118      -0.00000323       0.00000094
Si       6.77445908       4.07363718       9.47822028      -0.00000051      -0.00000214      -0.00000022
Si       9.50267315       4.08189290       6.77158790       0.00000123       0.00000145       0.00000164
Si       5.43165247       5.42223881      -0.01982152      -0.00000257      -0.00000113      -0.00000093
Si       5.51971745       8.16097044       2.59363436      -0.00000026      -0.00000107      -0.00000341
Si       8.16414479       8.16045251      -0.01763763      -0.00000049      -0.00000180       0.00000133
Si       8.15801055       5.44431722       2.70365856       0.00000324      -0.00000085       0.00000313
Si       9.53531528       6.80480646       4.03631289       0.00000090      -0.00000021       0.00000183
Si       6.83170327       6.77332205       1.30008022      -0.00000009      -0.00000268       0.00000430
Si       6.80793160       9.51191531       4.03257114      -0.00000343       0.00000042      -0.00000110
Si       9.52214958       9.51815493       1.34260272       0.00000108       0.00000241       0.00000101
Si       5.33489713       5.46068838       5.40681553      -0.00000100      -0.00000144      -0.00000107
Si       5.43584059       8.09914713       8.22141276      -0.00000141      -0.00000018       0.00000216
Si       8.21877788       8.20410892       5.36568565       0.00000034      -0.00000171      -0.00000262
Si       8.12557473       5.42033501       8.12696768      -0.00000072      -0.00000371      -0.00000202
Si       9.46120006       6.75559542       9.51951306      -0.00000029      -0.00000152       0.00000225
Si       6.92189259       6.85276184       6.71229193       0.00000075      -0.00000043      -0.00000291
Si       6.83017277       9.51803648       9.47118543      -0.00000492      -0.00000295      -0.00000153
Si       9.53669138       9.52556061       6.77696613      -0.00000070      -0.00000053       0.00000109
B        2.97654164       8.15571471       4.43781868      -0.00000831       0.00000177      -0.00000171
B        4.07889417       8.27969728       5.71528875       0.00000360       0.00000045      -0.00000215
B        5.01180490       7.11349982       6.51099190      -0.00000116       0.00000034      -0.00000261
