67
Lattice="10.862 0.0 0.0 0.0 10.862 0.0 0.0 0.0 10.862" Properties=species:S:1:pos:R:3:forces:R:3 energy=-360.01690198955225 free_energy=-360.01690198955225 pbc="T T T"
Si       0.01605348      -0.00143403      -0.00699401      -0.00000085      -0.00000014      -0.00000335
Si       0.00233990       2.72095794       2.69952471      -0.00000327      -0.00000421       0.00000059
Si       2.71510065       2.72403155       0.01214732       0.00000052       0.00000180      -0.00000222
Si       2.76316421       0.03573861       2.69675616      -0.00000301       0.00000389      -0.00000324
Si       4.11224359       1.40097920       4.05325626       0.00000159      -0.00000125       0.00000163
Si       1.36312192       1.36090762       1.35473877       0.00000267      -0.00000093      -0.00000154
Si       1.34153134       4.06588357       4.07625493      -0.00000171       0.00000140       0.00000029
Si       4.07481001       4.08616997       1.34150126      -0.00000476       0.00000264       0.00000125
Si       0.01601664       0.04584774       5.43626846      -0.00000051       0.00000114       0.00000292
Si      -0.01976770       2.72359845       8.16840684      -0.00000096      -0.00000112       0.00000057
Si       2.71689310       2.71600635       5.41860336      -0.00000069       0.00000016       0.00000231
Si       2.68451923       0.09307524       8.19721480      -0.00000174      -0.00000188      -0.00000165
Si       4.08533534       1.39094437       9.52902463       0.00000124      -0.00000087      -0.00000148
Si       1.34612324       1.39908316       6.79647927       0.00000213       0.00000003       0.00000399
Si       1.34047898       4.06728324       9.53194238      -0.00000297      -0.00000207      -0.00000164
Si       4.04920224       4.04177082       6.79921906       0.00000647       0.00000263      -0.00000240
Si      -0.01572539       5.44709930      -0.00064433       0.00000109       0.00000217      -0.00000303
Si       0.08980558       8.17560547       2.76063745      -0.00000072       0.00000060      -0.00000010
Si       2.72169525       8.16654752      -0.00251976       0.00000133      -0.00000068      -0.00000015
Si       2.66142889       5.40270312       2.67145336       0.00000743       0.00000276       0.00000347
Si       4.25271722       6.58906817       3.81839547      -0.00000364       0.00000177      -0.00000465
Si       1.35588136       6.80869912       1.33997140      -0.00000112      -0.00000351       0.00000018
Si       1.45260954       9.59645016       4.13321822       0.00000507      -0.00000000      -0.00000247
Si       4.09362013       9.52267918       1.34691832       0.00000194      -0.00000110       0.00000171
Si      -0.07659657       5.36106055       5.43582913       0.00000029       0.00000070      -0.00000071
Si      -0.00279169       8.16268499       8.13645251      -0.00000035       0.00000040      -0.00000377
Si       2.15930861       7.42766820       4.98828821       0.00000065      -0.00000065      -0.00000062
Si       2.70128611       5.40249281       8.16463247       0.00000085      -0.00000069       0.00000126
Si       4.04288381       6.80300149       9.50135613      -0.00000166       0.00000513       0.00000448
Si       1.19900123       6.62099887       6.88311588       0.00000322      -0.00000735      -0.00000096
Si       1.37541762       9.50930229       9.48287812       0.00000001       0.00000162      -0.00000060
Si       4.13033700       9.79391713       6.83619784       0.00000119      -0.00000293      -0.00000079
Si       5.45397328       0.00778805      -0.01814121      -0.00000022       0.00000225      -0.00000332
Si       5.46041505       2.75397561       2.69306639       0.00000019       0.00000217      -0.00000168
Si       8.14954003       2.73715999      -0.01083917      -0.00000115      -0.00000095       0.00000118
Si       8.17180273       0.01966376       2.69490290       0.00000086      -0.00000192      -0.00000190
Si       9.52214958       1.37289728       4.05934507       0.00000108      -0.00000101      -0.00000241
Si       6.80817446       1.37511287       1.33974320       0.00000147       0.00000098      -0.00000115
Si       6.83017277       4.10631457       4.05946352      -0.00000492       0.00000153       0.00000295
Si       9.50075056       4.08771898       1.35496044       0.00000166       0.00000039       0.00000159
Si       5.51971745       0.12186564       5.41652956      -0.00000026       0.00000341       0.00000107
Si       5.43165247       2.73532152       8.15526119      -0.00000257       0.00000093       0.00000113
Si       8.16414479       2.73313763       5.41704749      -0.00000049      -0.00000133       0.00000180
Si       8.15801055       0.01184144       8.13318278       0.00000324      -0.00000313       0.00000085
Si       9.50248129       1.35607242       9.51612033      -0.00000035      -0.00000205       0.00000347
Si       6.83170327       1.41541978       6.80417795      -0.00000009      -0.00000430       0.00000268
Si       6.77445908       4.09927972       9.50386282      -0.00000051       0.00000022       0.00000214
Si       9.46120006       4.05798694       6.82190459      -0.00000029      -0.00000225       0.00000152
Si       5.42273526       5.46061071      -0.01567353      -0.00000174       0.00000124      -0.00000195
Si       5.48381856       8.18185256       2.66287494       0.00000277      -0.00000283      -0.00000276
Si       8.16804877       8.17188397      -0.01971318      -0.00000005      -0.00000259      -0.00000046
Si       8.15390520       5.47099643       2.69723807      -0.00000009       0.00000095       0.00000172
Si       9.53669138       6.80053387       4.05193939      -0.00000070      -0.00000109       0.00000053
Si       6.81292586       6.81642866       1.32123747      -0.00000118      -0.00000094       0.00000323
Si       6.80793160       9.54492886       4.06558469      -0.00000343       0.00000110      -0.00000042
Si       9.54513715       9.50629732       1.36834368       0.00000436      -0.00000031      -0.00000354
Si       5.43584059       5.35608724       5.47835287      -0.00000141      -0.00000216       0.00000018
Si       5.33489713       8.17068447       8.11681162      -0.00000100       0.00000107       0.00000144
Si       8.21877788       8.21181435       5.37339108       0.00000034       0.00000262       0.00000171
Si       8.12557473       5.45053233       8.15716499      -0.00000072       0.00000202       0.00000371
Si       9.50267315       6.80591210       9.49560710       0.00000123      -0.00000164      -0.00000145
Si       6.92189259       6.86520807       6.72473816       0.00000075       0.00000291       0.00000043
Si       6.79395176       9.49976298       9.45370840      -0.00000154       0.00000060       0.00000077
Si       9.53531528       9.54118711       6.77269354       0.00000090      -0.00000183       0.00000021
B        2.97654164       9.13968132       5.42178529      -0.00000831       0.00000171      -0.00000177
B        4.07889417       7.86221125       5.29780272       0.00000359       0.00000215      -0.00000045
B        5.01180490       7.06650810       6.46400018      -0.00000116       0.00000261      -0.00000034
