67
Lattice="10.862 0.0 0.0 0.0 10.862 0.0 0.0 0.0 10.862" Properties=species:S:1:pos:R:3:forces:R:3 energy=-359.147143118399 free_energy=-359.147143118399 pbc="T T T"
Si       0.02119328      -0.01096542       0.00145358      -0.00004739      -0.00005080      -0.00001415
Si       0.02213302       2.71399756       2.72647234       0.00006361       0.00001348       0.00004938
Si       2.71292953       2.69128027       0.02588657       0.00002297       0.00010557       0.00009575
Si       2.87007427       0.01184612       2.70452678      -0.00160837      -0.00345905       0.00343926
Si       4.14531659       1.41771920       4.06809358      -0.00053452      -0.00084167       0.00061979
Si       1.37358691       1.31700502       1.39738402       0.00015341      -0.00002258      -0.00011593
Si       1.37367520       4.08388561       4.08892678       0.00002984       0.00014661      -0.00005870
Si       4.06283555       4.08734392       1.36790701      -0.00003849       0.00008289       0.00013750
Si      -0.12136910       0.09201908       5.49650768       0.00041093      -0.00003782       0.00001150
Si       0.01838086       2.69251805       8.15838707       0.00000525       0.00003906       0.00001551
Si       2.71792582       2.69945673       5.41938160      -0.00001558       0.00038720       0.00013185
Si       2.71590458      -0.03373388       8.12039269       0.00004101       0.00022083       0.00059992
Si       4.06337707       1.35009627       9.49210722       0.00002284       0.00016105       0.00014945
Si       1.36767265       1.34586571       6.78115144       0.00010749       0.00006407       0.00007017
Si       1.35571832       4.05027137       9.52749371       0.00001419       0.00000948       0.00002546
Si       4.03076705       4.03410336       6.80589833       0.00004375       0.00010707       0.00001677
Si       0.01784478       5.41896347       0.02317195      -0.00006344      -0.00003647      -0.00001863
Si      -0.12814268       8.08039966       2.62291956      -0.00035582      -0.00007524      -0.00000950
Si       2.71757772       8.15839734       0.01767399      -0.00004578      -0.00008100      -0.00018072
Si       2.71592260       5.46126243       2.75084558       0.00005774      -0.00009292      -0.00000233
Si       4.14060385       6.85794036       4.01445506      -0.00143971       0.00255703      -0.00138925
Si       1.36540783       6.79730386       1.37048663      -0.00016921       0.00005107       0.00004684
Si       0.89379636       9.56216585       4.01228993       0.00845462      -0.00058058       0.00001651
Si       4.14636949       9.51080594       1.29729998      -0.00041148      -0.00047351       0.00072206
Si      -0.01760293       5.41644457       5.42497449      -0.00004372      -0.00001111      -0.00006122
Si      -0.01709773       8.15187015       8.16118829       0.00001401      -0.00002662       0.00003159
Si       2.50987061       8.17416381       5.41740375      -0.00088858       0.00464365      -0.00313792
Si       2.68522008       5.42870265       8.14962597      -0.00006424       0.00002155       0.00007634
Si       4.03042355       6.77191633       9.54539198       0.00000584       0.00001766       0.00013523
Si       1.26875828       6.76819251       6.80803083       0.00048748      -0.00009026      -0.00003670
Si       1.37310554       9.48795760       9.49583171      -0.00003849      -0.00000894       0.00010113
Si       4.14510009       9.56390362       6.73259892      -0.00085905       0.00140803      -0.00102728
Si       5.46129783       0.01844025      -0.04128945       0.00022300       0.00029844      -0.00016066
Si       5.46002587       2.75719723       2.69906515       0.00006417       0.00021255      -0.00004342
Si       8.15652841       2.71852569      -0.00259333       0.00000532       0.00003570       0.00001681
Si       8.14979520       0.02374651       2.69309149       0.00002145       0.00008192       0.00007917
Si       9.47289775       1.40638679       4.06677336       0.00020387      -0.00007037       0.00006530
Si       6.79115888       1.37482830       1.34233150       0.00008496       0.00012395       0.00007589
Si       6.81314199       4.09894575       4.07452610      -0.00015449       0.00003119       0.00010710
Si       9.51503567       4.06229738       1.36509720       0.00001557      -0.00003097       0.00002023
Si       5.49229476       0.06141830       5.41088034       0.00001997      -0.00012360       0.00024785
Si       5.41684800       2.72329598       8.15347190       0.00000149       0.00005306      -0.00000881
Si       8.14441860       2.74725426       5.44237966      -0.00000389      -0.00003955      -0.00000122
Si       8.14260863       0.01361498       8.14856062       0.00004432       0.00003614      -0.00007214
Si       9.51523739       1.35107234       9.51504462       0.00003725       0.00006281       0.00001268
Si       6.80501933       1.39108976       6.80506161      -0.00010626      -0.00005474      -0.00012219
Si       6.78103460       4.06885694       9.50933990       0.00001787       0.00004542       0.00003955
Si       9.53068394       4.04860029       6.80461571       0.00002795       0.00002107       0.00003113
Si       5.41646972       5.42420168      -0.00655174      -0.00004362       0.00002830       0.00009493
Si       5.49439250       8.16860656       2.65222852       0.00027453      -0.00000199      -0.00008508
Si       8.14425454       8.13534766      -0.03184524      -0.00002211       0.00002793       0.00002614
Si       8.14153935       5.42819448       2.70256668      -0.00008460      -0.00001950       0.00004517
Si       9.48368576       6.76343287       4.05696471      -0.00007774      -0.00001850       0.00006319
Si       6.80550223       6.77213825       1.32432388      -0.00005703       0.00009337       0.00004852
Si       6.80698510       9.52248977       4.05525839      -0.00002778      -0.00002273       0.00005722
Si       9.47079867       9.51208180       1.30866737      -0.00005614       0.00010225       0.00001525
Si       5.39472995       5.36102006       5.45922323       0.00012896      -0.00011440       0.00034612
Si       5.39731831       8.11701297       8.22063488       0.00043096      -0.00047728       0.00060741
Si       8.20871632       8.19027910       5.38829058       0.00003628       0.00007393       0.00005456
Si       8.21772380       5.37508261       8.20238221      -0.00003802       0.00000824      -0.00001257
Si       9.53038852       6.77278635       9.52890063      -0.00000539      -0.00003979      -0.00002051
Si       7.05456961       6.77983749       6.79875513      -0.00001334       0.00008442       0.00004611
Si       6.81449635       9.50437622       9.47921767       0.00001217       0.00005916       0.00004999
Si       9.48609266       9.52156693       6.81334433       0.00021273       0.00006319      -0.00006604
B        2.73053036       9.49535494       4.01585962      -0.00384022      -0.00531685      -0.00210821
B        4.36768691       7.87030521       5.71206857      -0.00026896       0.00040373       0.00017854
B        5.16456340       6.84271525       6.73619519      -0.00037432       0.00023578      -0.00006769
