360
Lattice="11.605727294873521 0.0 0.0 0.0 16.412976941613742 0.0 0.0 0.0 38.6857576495784" Properties=species:S:1:pos:R:3:move_mask:L:1:forces:R:3 energy=-1749.9209064804777 free_energy=-1749.9209064804777 pbc="F F F"
Si       5.31929168       7.52261443      19.47827898  F      -0.54247458      -0.74198474      -1.08674979
Si       5.31929168       6.15486635     -18.51113504  F      -0.85632560       0.15984462       1.05505394
Si      -4.35214774      -6.15486635     -18.51113504  F       0.85632549      -0.15984547       1.05505447
Si      -4.35214774      -7.52261443     -16.57684715  F       0.06873529       0.94101532      -0.22748866
Si      -2.41785985       7.52261443      19.47827898  F       0.39687905      -0.57228544      -0.86038886
Si      -2.41785985       6.15486635     -18.51113504  F      -0.11481704      -0.24246599       0.66306015
Si      -0.48357197      -6.15486635     -18.51113504  F       0.05525939       0.07853313       0.63950382
Si      -0.48357197      -7.52261443     -16.57684715  F      -0.00206006       0.36897032      -0.25698973
Si       1.45071591       7.52261443      19.47827898  F      -0.01662654      -0.54727553      -0.75626690
Si       1.45071591       6.15486635     -18.51113504  F      -0.05525859      -0.07853245       0.63950119
Si       3.38500379      -6.15486635     -18.51113504  F       0.11481696       0.24246706       0.66306025
Si       3.38500379      -7.52261443     -16.57684715  F      -0.10805581       0.43456266      -0.17796429
Si       5.31929168      -3.41937020      19.47827898  F      -0.77662401       0.02785956      -0.78288331
Si       5.31929168      -4.78711827     -18.51113504  F      -0.79960242       0.02945128       0.77102674
Si      -4.35214774      -0.68387404     -18.51113504  F       0.80488955       0.00520073       0.80153211
Si      -4.35214774      -2.05162212     -16.57684715  F       0.17636763       0.31320767      -0.19032004
Si      -2.41785985      -3.41937020      19.47827898  F      -0.23032727       0.30205962      -0.15031814
Si      -2.41785985      -4.78711827     -18.51113504  F      -0.23123988      -0.26349141       0.16370348
Si      -0.48357197      -0.68387404     -18.51113504  F       0.08815410       0.22268928       0.11463863
Si      -0.48357197      -2.05162212     -16.57684715  F       0.11602595      -0.00220420      -0.16271730
Si       1.45071591      -3.41937020      19.47827898  F      -0.08816225       0.22048995      -0.10376617
Si       1.45071591      -4.78711827     -18.51113504  F      -0.08713901      -0.07444325       0.07096742
Si       3.38500379      -0.68387404     -18.51113504  F       0.19612066       0.34445747       0.16194611
Si       3.38500379      -2.05162212     -16.57684715  F       0.06593640      -0.04738832      -0.12327587
Si       5.31929168       2.05162212      19.47827898  F      -0.81386109       0.00998418      -0.80022998
Si       5.31929168       0.68387404     -18.51113504  F      -0.80488881      -0.00520057       0.80153025
Si      -4.35214774       4.78711827     -18.51113504  F       0.79960409      -0.02945150       0.77102926
Si      -4.35214774       3.41937020     -16.57684715  F       0.15498558       0.29800669      -0.19557715
Si      -2.41785985       2.05162212      19.47827898  F      -0.18261092       0.32612877      -0.17445712
Si      -2.41785985       0.68387404     -18.51113504  F      -0.19612078      -0.34445580       0.16194630
Si      -0.48357197       4.78711827     -18.51113504  F       0.08713878       0.07444329       0.07097027
Si      -0.48357197       3.41937020     -16.57684715  F       0.11583165       0.01367937      -0.14560635
Si       1.45071591       2.05162212      19.47827898  F      -0.08890620       0.23370230      -0.13406001
Si       1.45071591       0.68387404     -18.51113504  F      -0.08815421      -0.22268834       0.11463805
Si       3.38500379       4.78711827     -18.51113504  F       0.23124004       0.26349259       0.16370650
Si       3.38500379       3.41937020     -16.57684715  F       0.10952365       0.02256566      -0.11602364
Si       5.31929168       7.52261443     -16.57684715  F      -0.06873562      -0.94101772      -0.22748434
Si       5.31929168       6.15486635     -14.64255927  F      -0.47378773       0.43843157       0.10304083
Si      -4.35214774      -6.15486635     -14.64255927  F       0.47379495      -0.43843398       0.10305806
Si      -4.35214774      -7.52261443     -12.70827139  F      -0.12424387       0.29498007      -0.61845945
Si      -2.41785985       7.52261443     -16.57684715  F       0.10805475      -0.43456424      -0.17796099
Si      -2.41785985       6.15486635     -14.64255927  F      -0.03768523      -0.10768163       0.08359910
Si      -0.48357197      -6.15486635     -14.64255927  F      -0.16055424      -0.00451902      -0.04006706
Si      -0.48357197      -7.52261443     -12.70827139  F      -0.08468005       0.35045109       0.64043701
Si       1.45071591       7.52261443     -16.57684715  F       0.00205958      -0.36897569      -0.25698296
Si       1.45071591       6.15486635     -14.64255927  F       0.16054065       0.00451156      -0.04007240
Si       3.38500379      -6.15486635     -14.64255927  F       0.03769527       0.10767841       0.08359999
Si       3.38500379      -7.52261443     -12.70827139  F      -0.16802941       0.09918779      -0.02652700
Si       5.31929168      -3.41937020     -16.57684715  F      -0.15498602      -0.29800971      -0.19558121
Si       5.31929168      -4.78711827     -14.64255927  F      -0.13658234       0.15095280       0.06882310
Si      -4.35214774      -0.68387404     -14.64255927  F       0.12224732      -0.18537465       0.06737551
Si      -4.35214774      -2.05162212     -12.70827139  F       0.11471789      -0.04297375      -0.10083891
Si      -2.41785985      -3.41937020     -16.57684715  F      -0.10952498      -0.02256487      -0.11602791
Si      -2.41785985      -4.78711827     -14.64255927  F      -0.19422912      -0.16581025       0.21172796
Si      -0.48357197      -0.68387404     -14.64255927  F       0.08694657      -0.00223415       0.06283634
Si      -0.48357197      -2.05162212     -12.70827139  F       0.06495379       0.01982538       0.03169969
Si       1.45071591      -3.41937020     -16.57684715  F      -0.11583390      -0.01367884      -0.14560910
Si       1.45071591      -4.78711827     -14.64255927  F      -0.04096517      -0.13769513       0.11638630
Si       3.38500379      -0.68387404     -14.64255927  F       0.13841232       0.07651564       0.07455967
Si       3.38500379      -2.05162212     -12.70827139  F       0.15701929       0.05370400      -0.07738441
Si       5.31929168       2.05162212     -16.57684715  F      -0.17636827      -0.31321244      -0.19032086
Si       5.31929168       0.68387404     -14.64255927  F      -0.12223944       0.18539624       0.06735755
Si      -4.35214774       4.78711827     -14.64255927  F       0.13659888      -0.15093872       0.06883080
Si      -4.35214774       3.41937020     -12.70827139  F       0.10966029       0.12033016       0.09571266
Si      -2.41785985       2.05162212     -16.57684715  F      -0.06593610       0.04739128      -0.12327623
Si      -2.41785985       0.68387404     -14.64255927  F      -0.13840845      -0.07650482       0.07455866
Si      -0.48357197       4.78711827     -14.64255927  F       0.04097039       0.13770928       0.11639917
Si      -0.48357197       3.41937020     -12.70827139  F      -0.11734876      -0.48597662      -0.30432287
Si       1.45071591       2.05162212     -16.57684715  F      -0.11602734       0.00220567      -0.16271620
Si       1.45071591       0.68387404     -14.64255927  F      -0.08694712       0.00224359       0.06282758
Si       3.38500379       4.78711827     -14.64255927  F       0.19422610       0.16582970       0.21173721
Si       3.38500379       3.41937020     -12.70827139  F       0.02482206       0.04772092      -0.12622808
Si       5.31929168       7.52261443     -12.70827139  F       0.12414004      -0.29503976      -0.61839384
Si       3.48658629       7.12883392     -11.25069571  T       0.00056832      -0.00001903       0.00035501
Si      -2.51942244      -7.12889850     -11.25072649  T      -0.00056955       0.00002826       0.00035909
Si      -1.95891870      -7.99548476      -8.91439942  T       0.00007860       0.00006274      -0.00027600
Si      -2.41785985       7.52261443     -12.70827139  F       0.16804281      -0.09929763      -0.02638697
Si      -2.46724777       6.16856643     -10.67328819  T       0.00029018      -0.00006183      -0.00022346
Si      -0.08716654      -5.98261722     -10.82160276  T      -0.00009766       0.00014019       0.00009068
Si       0.19101559      -7.02723194      -8.70433171  T      -0.00001773      -0.00000129       0.00041801
Si       1.45071591       7.52261443     -12.70827139  F       0.08477665      -0.35060670       0.64064845
Si       1.05435541       5.98257037     -10.82158953  T       0.00008956      -0.00013973       0.00008855
Si       3.43444545      -6.16858386     -10.67330972  T      -0.00029557       0.00005953      -0.00021987
Si       2.59497119      -7.32473465      -8.66349340  T       0.00014858      -0.00009064      -0.00026398
Si       5.31929168      -3.41937020     -12.70827139  F      -0.10962531      -0.12035512       0.09564099
Si       5.32028394      -4.74603205     -10.62398185  T      -0.00025327      -0.00008405      -0.00010639
Si      -4.31684921      -0.79529163     -10.63784690  T       0.00013216       0.00012538       0.00041420
Si      -4.26979951      -2.15083590      -8.67804304  T      -0.00024932      -0.00020560       0.00008144
Si      -2.41785985      -3.41937020     -12.70827139  F      -0.02480107      -0.04781873      -0.12624716
Si      -2.14085084      -4.83102906     -10.73336457  T      -0.00017160      -0.00008216      -0.00002213
Si      -0.48550790      -0.67734877     -10.66439213  T      -0.00007537       0.00013655       0.00009249
Si      -0.48242438      -2.02167156      -8.66362144  T       0.00007819       0.00015141       0.00022567
Si       1.45071591      -3.41937020     -12.70827139  F       0.11737096       0.48595168      -0.30441335
Si       1.72217940      -4.58837503     -10.63617477  T      -0.00001593      -0.00001579       0.00018177
Si       3.42862028      -0.64667037     -10.67774442  T      -0.00001669      -0.00040836       0.00001296
Si       3.50818889      -1.92569805      -8.64041232  T       0.00002442       0.00002166       0.00024621
Si       5.31929168       2.05162212     -12.70827139  F      -0.11472336       0.04285918      -0.10082918
Si       5.28400345       0.79520659     -10.63789164  T      -0.00011639      -0.00010215       0.00042440
Si      -4.35306469       4.74598293     -10.62394135  T       0.00025062       0.00008454      -0.00010852
Si      -4.28978691       3.51371009      -8.57970567  T       0.00005607      -0.00023997      -0.00000320
Si      -2.41785985       2.05162212     -12.70827139  F      -0.15705110      -0.05383279      -0.07731365
Si      -2.46148500       0.64661600     -10.67774759  T       0.00000958       0.00039399       0.00000997
Si      -0.75500323       4.58832520     -10.63613197  T       0.00001629       0.00001769       0.00018068
Si      -0.58624454       3.21448839      -8.66254314  T       0.00026121       0.00010433       0.00028847
Si       1.45071591       2.05162212     -12.70827139  F      -0.06497639      -0.01995210       0.03174656
Si       1.45263761       0.67728434     -10.66440899  T       0.00007639      -0.00013149       0.00009703
Si       3.10802468       4.83096048     -10.73332192  T       0.00017511       0.00007003      -0.00002495
Si       3.31958447       3.52475944      -8.69793419  T      -0.00001960       0.00002908      -0.00006874
Si       2.92618879       7.99521821      -8.91425806  T      -0.00008612      -0.00004694      -0.00029002
Si       3.85866542       7.11260890      -6.76500555  T      -0.00026971       0.00001193       0.00050286
Si      -2.89132342      -7.11296717      -6.76509040  T       0.00026492       0.00004159       0.00050923
Si      -1.99982055      -8.03575132      -4.65547943  T       0.00016122      -0.00021276       0.00012992
Si      -1.62772168       7.32458036      -8.66339263  T      -0.00015794       0.00009456      -0.00026707
Si      -2.21944180       6.16899027      -6.60973052  T       0.00041287       0.00004548       0.00001610
Si      -0.21537498      -5.82567765      -6.67611478  T      -0.00012407       0.00013191       0.00040670
Si       0.09662359      -6.96486780      -4.61364532  T       0.00016510       0.00008654       0.00004334
Si       0.77621983       7.02703601      -8.70423008  T       0.00001605       0.00000732       0.00041758
Si       1.18257791       5.82538339      -6.67605574  T       0.00005090      -0.00011112       0.00040066
Si       3.18667539      -6.16915834      -6.60982493  T      -0.00041950      -0.00004752       0.00002332
Si       2.45629928      -7.36541475      -4.60349085  T       0.00028454       0.00005916       0.00003409
Si       5.25697849      -3.51378710      -8.57973882  T      -0.00005087       0.00022873      -0.00000218
Si       5.16464007      -4.86548536      -6.59481283  T      -0.00054806       0.00006505       0.00037581
Si      -4.32338091      -0.90081253      -6.64614391  T      -0.00031076       0.00013399       0.00019852
Si      -4.30931705      -2.16097096      -4.61989743  T      -0.00006717       0.00005052       0.00054065
Si      -2.35243303      -3.52494885      -8.69793409  T      -0.00000145       0.00001905      -0.00008186
Si      -2.31042994      -4.81818233      -6.67445999  T      -0.00002268       0.00001139       0.00009791
Si      -0.49614091      -0.67391183      -6.64493192  T       0.00038579       0.00025322       0.00015201
Si      -0.50453407      -1.98636497      -4.61542512  T       0.00002597       0.00025040       0.00061542
Si       1.55338261      -3.21462506      -8.66256852  T      -0.00026424      -0.00010842       0.00029412
Si       1.62019755      -4.44020524      -6.61611934  T      -0.00050956       0.00001323       0.00031674
Si       3.47838730      -0.59032546      -6.63416476  T       0.00001232      -0.00024959       0.00047851
Si       3.53041075      -1.90292114      -4.60603137  T      -0.00008578      -0.00048007       0.00026230
Si       5.23695393       2.15066013      -8.67803385  T       0.00027362       0.00018144       0.00008140
Si       5.29053213       0.90052879      -6.64619354  T       0.00034770      -0.00007032       0.00020785
Si      -4.19740931       4.86532034      -6.59472063  T       0.00054359      -0.00006378       0.00037143
Si      -4.22422066       3.59022153      -4.56623686  T       0.00011241      -0.00013111      -0.00001692
Si      -2.54105429       1.92555583      -8.64037133  T      -0.00001691       0.00000507       0.00023822
Si      -2.51126860       0.59009731      -6.63415372  T      -0.00003575       0.00021577       0.00048253
Si      -0.65303983       4.43997144      -6.61604270  T       0.00053959       0.00001230       0.00031468
Si      -0.57696389       3.13941864      -4.60509064  T       0.00030737       0.00009483       0.00020288
Si       1.44955089       2.02151440      -8.66359623  T      -0.00006941      -0.00014868       0.00022117
Si       1.46325159       0.67366425      -6.64494408  T      -0.00037529      -0.00023703       0.00015414
Si       3.27761186       4.81787867      -6.67440286  T       0.00006117      -0.00007304       0.00008520
Si       3.34788804       3.49998559      -4.63890822  T       0.00007968       0.00023351       0.00021589
Si       2.96720117       8.03528602      -4.65534799  T      -0.00017338       0.00024625       0.00011353
Si       3.98779432       7.06199797      -2.63806240  T       0.00020137      -0.00034451       0.00055523
Si      -3.02034513      -7.06256599      -2.63809415  T      -0.00021244       0.00042272       0.00056493
Si      -2.08877206      -7.98218283      -0.56295071  T      -0.00004480      -0.00007836       0.00026880
Si      -1.48897389       7.36516578      -4.60337907  T      -0.00030042      -0.00005713       0.00003029
Si      -2.13526368       6.19228289      -2.56466056  T       0.00005149       0.00024882       0.00023252
Si      -0.25229391      -5.76278758      -2.59030689  T      -0.00003161       0.00010576      -0.00003611
Si       0.02563118      -6.94199744      -0.54655157  T      -0.00004966       0.00037934       0.00035616
Si       0.87068879       6.96452544      -4.61354764  T      -0.00017355      -0.00008170       0.00004070
Si       1.21953896       5.76233489      -2.59026553  T      -0.00010886      -0.00007060      -0.00004162
Si       3.10255680      -6.19255791      -2.56473809  T      -0.00005787      -0.00024776       0.00023881
Si       2.37875921      -7.37274840      -0.54735139  T       0.00013747       0.00006890       0.00011840
Si       5.19142993      -3.59044218      -4.56629672  T      -0.00010410       0.00011936      -0.00001281
Si       5.08913517      -4.90154944      -2.55577885  T      -0.00024070       0.00010677      -0.00006650
Si      -4.35079932      -0.88245030      -2.59844599  T       0.00001772       0.00030716       0.00025192
Si      -4.34338024      -2.12545234      -0.55865023  T      -0.00006031       0.00037156       0.00001833
Si      -2.38071190      -3.50039930      -4.63891045  T      -0.00012408      -0.00013676       0.00020106
Si      -2.35328044      -4.78738295      -2.60222440  T       0.00012099      -0.00023561       0.00021827
Si      -0.51010084      -0.65724531      -2.58849853  T       0.00013611       0.00025273       0.00016428
Si      -0.52208187      -1.97045480      -0.55717189  T      -0.00037725       0.00055159       0.00021561
Si       1.54410270      -3.13973142      -4.60512784  T      -0.00031935      -0.00010072       0.00020968
Si       1.59821231      -4.40361931      -2.57467054  T       0.00026354       0.00018981      -0.00022393
Si       3.49761416      -0.59951072      -2.57953568  T      -0.00013892      -0.00005517      -0.00037907
Si       3.52562602      -1.91477623      -0.55022522  T       0.00017936       0.00035154      -0.00018842
Si       5.27650747       2.16059997      -4.61989816  T       0.00011656      -0.00009138       0.00054022
Si       5.31797166       0.88199200      -2.59849501  T       0.00002809      -0.00021506       0.00025686
Si      -4.12185221       4.90128299      -2.55569835  T       0.00023369      -0.00010265      -0.00007586
Si      -4.19187895       3.62851620      -0.52497309  T       0.00021746      -0.00002762       0.00000990
Si      -2.56328164       1.90261379      -4.60598012  T       0.00010683       0.00052956       0.00025256
Si      -2.53049102       0.59913257      -2.57951316  T       0.00010883       0.00002067      -0.00037864
Si      -0.63103465       4.40324922      -2.57461262  T      -0.00020088      -0.00012653      -0.00022845
Si      -0.55831955       3.12889399      -0.54927455  T       0.00011195      -0.00009742      -0.00023959
Si       1.47165588       1.98602471      -4.61540141  T      -0.00000788      -0.00024150       0.00060994
Si       1.47721320       0.65684035      -2.58850955  T      -0.00011838      -0.00022898       0.00016800
Si       3.32049263       4.78690382      -2.60219737  T      -0.00004960       0.00014821       0.00020534
Si       3.38395485       3.46416310      -0.57153466  T       0.00036799       0.00029901      -0.00001568
Si       3.05624461       7.98158501      -0.56292364  T       0.00002457       0.00012663       0.00026344
Si       4.06490953       7.01095314       1.45658375  T       0.00001381      -0.00008400       0.00002829
Si      -3.09738201      -7.01160718       1.45664091  T      -0.00002968       0.00017338       0.00003100
Si      -2.16513142      -7.93389952       3.52927130  T      -0.00018898      -0.00004544       0.00004574
Si      -1.41136316       7.37243605      -0.54729945  T      -0.00015756      -0.00006453       0.00011330
Si      -2.08078326       6.20724199       1.48790770  T       0.00033918       0.00042300      -0.00004091
Si      -0.29957925      -5.74096635       1.47999754  T      -0.00000111       0.00019880       0.00027438
Si      -0.03263202      -6.92762080       3.52117392  T      -0.00005188       0.00005695      -0.00003390
Si       0.94175073       6.94156698      -0.54651412  T       0.00003731      -0.00037195       0.00034987
Si       1.26687069       5.74045340       1.47999081  T      -0.00013003      -0.00015331       0.00027040
Si       3.04813055      -6.20755422       1.48788935  T      -0.00035069      -0.00041482      -0.00003449
Si       2.31706103      -7.38042076       3.50707638  T       0.00031069       0.00022516       0.00028241
Si       5.15912639      -3.62881768      -0.52502425  T      -0.00021143       0.00001920       0.00001691
Si       5.04569794      -4.93388267       1.48881578  T      -0.00044550      -0.00034408       0.00015279
Si      -4.36459300      -0.84511678       1.46451274  T      -0.00015455       0.00061223       0.00027152
Si      -4.36237970      -2.08177312       3.50969012  T      -0.00023489       0.00013701      -0.00014455
Si      -2.41674226      -3.46471333      -0.57151722  T      -0.00042290      -0.00017749      -0.00002095
Si      -2.39265040      -4.74970121       1.47008486  T      -0.00016774       0.00017410       0.00022651
Si      -0.51594173      -0.64826266       1.47299552  T       0.00033383      -0.00007544       0.00010377
Si      -0.53504416      -1.95959834       3.50579250  T      -0.00020434      -0.00013525      -0.00007488
Si       1.52548299      -3.12931389      -0.54929630  T      -0.00012447       0.00009724      -0.00023411
Si       1.56512020      -4.40080642       1.48004915  T       0.00005566      -0.00010040       0.00008877
Si       3.49728185      -0.61841289       1.48107679  T      -0.00052023       0.00005381       0.00031335
Si       3.51125329      -1.93458505       3.50967250  T      -0.00020951       0.00008490       0.00033618
Si       5.31061056       2.12495392      -0.55867549  T       0.00011710      -0.00041308       0.00001392
Si       5.33179926       0.84459354       1.46447549  T       0.00020216      -0.00051023       0.00027288
Si      -4.07836844       4.93358983       1.48884733  T       0.00043554       0.00035222       0.00014887
Si      -4.16401897       3.66070677       3.51928839  T      -0.00000587      -0.00031801      -0.00005964
Si      -2.55847745       1.91436970      -0.55018865  T      -0.00015258      -0.00028930      -0.00019381
Si      -2.53013211       0.61798246       1.48110098  T       0.00048623      -0.00008796       0.00031401
Si      -0.59790337       4.40039012       1.48005491  T       0.00000089       0.00016270       0.00008641
Si      -0.53550311       3.13453361       3.51092626  T       0.00006375      -0.00011210       0.00015598
Si       1.48922424       1.97000014      -0.55716902  T       0.00039722      -0.00053251       0.00021192
Si       1.48307996       0.64780252       1.47298722  T      -0.00031563       0.00010381       0.00010470
Si       3.35990526       4.74915313       1.47005445  T       0.00022914      -0.00025386       0.00021960
Si       3.41122902       3.43049947       3.50029352  T       0.00022333      -0.00001392      -0.00011556
Si       3.13265056       7.93330205       3.52915407  T       0.00016727       0.00009493       0.00004784
Si       4.14141089       6.95744004       5.55052913  T       0.00010813       0.00026115       0.00059735
Si      -3.17386977      -6.95801773       5.55068340  T      -0.00012324      -0.00017087       0.00059118
Si      -2.28193302      -7.84197868       7.65200580  T      -0.00018524      -0.00014082       0.00009556
Si      -1.34961415       7.38012182       3.50703575  T      -0.00033246      -0.00021925       0.00028052
Si      -2.03969115       6.22720989       5.54229422  T       0.00002641      -0.00009331       0.00031351
Si      -0.34334383      -5.73291382       5.55533087  T      -0.00027270      -0.00046621       0.00018204
Si      -0.08834306      -6.93989780       7.58862666  T       0.00019016       0.00002702      -0.00000252
Si       1.00006173       6.92719493       3.52112511  T       0.00003637      -0.00004907      -0.00003352
Si       1.31067122       5.73246897       5.55527700  T       0.00011530       0.00051425       0.00018415
Si       3.00707309      -6.22745086       5.54233759  T      -0.00003940       0.00010346       0.00031719
Si       2.27954542      -7.38784814       7.56680790  T       0.00009809      -0.00012591      -0.00009728
Si       5.13130437      -3.66099067       3.51926519  T       0.00001018       0.00031181      -0.00005830
Si       5.00932772      -4.95695354       5.53593000  T      -0.00029523      -0.00004498      -0.00011625
Si      -4.36375727      -0.80473619       5.53517587  T      -0.00000510       0.00051733       0.00024252
Si      -4.35596769      -2.04278070       7.57938483  T       0.00000255       0.00000525       0.00001330
Si      -2.44397718      -3.43104862       3.50033552  T      -0.00028418       0.00014806      -0.00012538
Si      -2.42430007      -4.71403489       5.54508281  T       0.00024427      -0.00022592       0.00015217
Si      -0.51656632      -0.64096540       5.53548924  T      -0.00006612       0.00001279       0.00009271
Si      -0.53048136      -1.94765993       7.57014603  T      -0.00029818       0.00005452       0.00056871
Si       1.50270235      -3.13494114       3.51093168  T      -0.00008032       0.00011066       0.00015680
Si       1.53635469      -4.41190467       5.54006230  T      -0.00028199       0.00008445      -0.00004660
Si       3.48474347      -0.64280735       5.54623719  T      -0.00018751      -0.00022251       0.00023994
Si       3.48531928      -1.96005949       7.57418316  T      -0.00004202       0.00006818      -0.00001985
Si       5.32964889       2.08127637       3.50964203  T       0.00029102      -0.00017922      -0.00014327
Si       5.33099675       0.80429028       5.53516188  T       0.00004901      -0.00041868       0.00024451
Si      -4.04196096       4.95672972       5.53590355  T       0.00028439       0.00005345      -0.00011628
Si      -4.17180614       3.65188882       7.54367418  T       0.00001382       0.00006834      -0.00026123
Si      -2.54407087       1.93419323       3.50967876  T       0.00023585      -0.00002002       0.00032990
Si      -2.51755947       0.64245535       5.54625725  T       0.00014750       0.00019031       0.00023931
Si      -0.56910548       4.41155953       5.54001607  T       0.00034927      -0.00001629      -0.00004881
Si      -0.51001017       3.16501265       7.58323232  T      -0.00002422      -0.00036952       0.00043603
Si       1.50222106       1.95915413       3.50576801  T       0.00022177       0.00015655      -0.00007431
Si       1.48374001       0.64058845       5.53548729  T       0.00008074       0.00001235       0.00009135
Si       3.39159060       4.71355976       5.54499640  T      -0.00017641       0.00012748       0.00014934
Si       3.40696839       3.39458577       7.57237841  T       0.00006582       0.00015056       0.00034390
Si       3.24943940       7.84152502       7.65176294  T       0.00016221       0.00017758       0.00011347
Si       4.45205197       6.76199192       9.51856455  T      -0.00037137       0.00010877      -0.00018407
Si      -3.48456517      -6.76234626       9.51877784  T       0.00037003      -0.00003832      -0.00019227
Si      -2.83321999      -7.19665627      11.83343863  T       0.00035059       0.00019066      -0.00053900
Si      -1.31207903       7.38763413       7.56671254  T      -0.00011851       0.00013187      -0.00009922
Si      -2.10574772       6.19874606       9.54541044  T      -0.00007951      -0.00024889      -0.00002143
Si      -0.36415575      -5.82190713       9.66207419  T       0.00004368       0.00008522      -0.00035113
Si      -0.10054238      -7.26880710      11.55621306  T       0.00019851      -0.00001121      -0.00004646
Si       1.05579099       6.93957149       7.58851613  T      -0.00020547      -0.00002069      -0.00000287
Si       1.33151162       5.82164695       9.66200630  T      -0.00013412      -0.00005375      -0.00034749
Si       3.07311863      -6.19883734       9.54546520  T       0.00006024       0.00025437      -0.00002467
Si       2.36158129      -7.16418579      11.62808121  T       0.00046026       0.00002010       0.00009248
Si       5.13911103      -3.65204592       7.54367361  T      -0.00001492      -0.00007498      -0.00025853
Si       5.07388515      -4.93272150       9.56738446  T       0.00000876       0.00035344       0.00057670
Si      -4.33496392      -0.76341724       9.60068419  T       0.00006692       0.00027169       0.00012366
Si      -4.34667139      -2.01650093      11.63102470  T       0.00016418      -0.00007637      -0.00016931
Si      -2.43969055      -3.39497914       7.57242606  T      -0.00012329      -0.00003890       0.00034466
Si      -2.40589516      -4.70160367       9.60379437  T      -0.00011544       0.00012013       0.00004304
Si      -0.50518664      -0.65121705       9.60830323  T       0.00012253       0.00019600      -0.00002572
Si      -0.50762305      -2.00711516      11.61680746  T      -0.00003896       0.00016761      -0.00000640
Si       1.47723910      -3.16527771       7.58324879  T       0.00000745       0.00037012       0.00042830
Si       1.50757400      -4.48551039       9.59394210  T       0.00002513       0.00021815      -0.00040453
Si       3.44618815      -0.67443107       9.61609271  T      -0.00013046       0.00000949      -0.00024660
Si       3.43130872      -2.02596798      11.62412387  T       0.00068441       0.00034043       0.00009520
Si       5.32324728       2.04241756       7.57933304  T       0.00004253      -0.00004450       0.00001193
Si       5.30218277       0.76319048       9.60071561  T      -0.00004045      -0.00020710       0.00012486
Si      -4.10652614       4.93263759       9.56733874  T      -0.00001788      -0.00034803       0.00057741
Si      -4.24431756       3.57735255      11.55106674  T       0.00010912       0.00020664       0.00027022
Si      -2.51810623       1.95980548       7.57415986  T       0.00005989      -0.00002040      -0.00001803
Si      -2.47899769       0.67425750       9.61609853  T       0.00010119      -0.00003258      -0.00024311
Si      -0.54030037       4.48534253       9.59389035  T       0.00000937      -0.00019111      -0.00040806
Si      -0.48445107       3.31087134      11.67409050  T      -0.00028338      -0.00020421      -0.00011829
Si       1.49768901       1.94736185       7.57010608  T       0.00031090      -0.00004248       0.00057156
Si       1.47237549       0.65103602       9.60831088  T      -0.00011591      -0.00018234      -0.00002716
Si       3.37322190       4.70133990       9.60368173  T       0.00012824      -0.00020229       0.00004574
Si       3.41038809       3.39941954      11.64284885  T      -0.00014368      -0.00025177       0.00009352
Si       3.80048569       7.19649599      11.83310293  T      -0.00035732      -0.00017978      -0.00051326
Si       5.31929168       6.15486635      13.67541533  F      -0.69086052       0.38129534      -0.09045508
Si      -4.35214774      -6.15486635      13.67541533  F       0.69069673      -0.38132462      -0.09030112
Si      -4.35214774      -7.52261443      15.60970321  F       0.22388662       0.74452771       0.12247335
Si      -1.39409379       7.16394753      11.62806398  T      -0.00049140      -0.00001057       0.00009374
Si      -2.41785985       6.15486635      13.67541533  F       0.29895764       0.02200594       0.23053321
Si      -0.48357197      -6.15486635      13.67541533  F       0.04920680       0.25815328       0.28256567
Si      -0.48357197      -7.52261443      15.60970321  F      -0.03504302       0.06652953       0.03881016
Si       1.06818365       7.26868939      11.55608659  T      -0.00022926       0.00001346      -0.00004761
Si       1.45071591       6.15486635      13.67541533  F      -0.04922101      -0.25855283       0.28270852
Si       3.38500379      -6.15486635      13.67541533  F      -0.29885095      -0.02188286       0.23061937
Si       3.38500379      -7.52261443      15.60970321  F      -0.18975895       0.17271854       0.03110412
Si       5.21155691      -3.57736096      11.55107633  T      -0.00011103      -0.00021230       0.00027212
Si       5.31929168      -4.78711827      13.67541533  F      -0.21272140      -0.00410965      -0.19888737
Si      -4.35214774      -0.68387404      13.67541533  F       0.14431118      -0.10079201       0.07147349
Si      -4.35214774      -2.05162212      15.60970321  F       0.10146517       0.18498507      -0.05583560
Si      -2.44318704      -3.39949742      11.64284635  T       0.00012183       0.00029590       0.00011009
Si      -2.41785985      -4.78711827      13.67541533  F      -0.24268618      -0.07551244      -0.06506620
Si      -0.48357197      -0.68387404      13.67541533  F       0.05739628       0.10635193      -0.01637791
Si      -0.48357197      -2.05162212      15.60970321  F       0.05866048      -0.02752566      -0.05818400
Si       1.45164825      -3.31094265      11.67409097  T       0.00027592       0.00020386      -0.00012362
Si       1.45071591      -4.78711827      13.67541533  F       0.02282735       0.06114372      -0.06779307
Si       3.38500379      -0.68387404      13.67541533  F       0.23541570       0.09456072       0.05368581
Si       3.38500379      -2.05162212      15.60970321  F       0.11084897      -0.06897179      -0.06403485
Si       5.31385429       2.01640565      11.63098715  T      -0.00014501       0.00005276      -0.00017499
Si       5.31929168       0.68387404      13.67541533  F      -0.14428289       0.10062274       0.07158260
Si      -4.35214774       4.78711827      13.67541533  F       0.21284459       0.00400917      -0.19901983
Si      -4.35214774       3.41937020      15.60970321  F       0.11107872       0.11404074      -0.05715834
Si      -2.46412276       2.02589572      11.62409091  T      -0.00067819      -0.00032224       0.00010518
Si      -2.41785985       0.68387404      13.67541533  F      -0.23537232      -0.09466412       0.05368794
Si      -0.48357197       4.78711827      13.67541533  F      -0.02280287      -0.06119955      -0.06801365
Si      -0.48357197       3.41937020      15.60970321  F       0.07473259      -0.11129389       0.00622545
Si       1.47481541       2.00703840      11.61677748  T       0.00003840      -0.00016471      -0.00000405
Si       1.45071591       0.68387404      13.67541533  F      -0.05736337      -0.10648661      -0.01634827
Si       3.38500379       4.78711827      13.67541533  F       0.24272564       0.07540437      -0.06512730
Si       3.38500379       3.41937020      15.60970321  F       0.12103435      -0.12570417       0.03660702
Si       5.31929168       7.52261443      15.60970321  F      -0.22390232      -0.74449840       0.12242559
Si       5.31929168       6.15486635      17.54399109  F      -0.37605279       0.70984214       0.23264907
Si      -4.35214774      -6.15486635      17.54399109  F       0.37604310      -0.70984478       0.23266254
Si      -4.35214774      -7.52261443      19.47827898  F       0.54247402       0.74198470      -1.08673952
Si      -2.41785985       7.52261443      15.60970321  F       0.18979468      -0.17277738       0.03106087
Si      -2.41785985       6.15486635      17.54399109  F      -0.02653440       0.23764739       0.16397716
Si      -0.48357197      -6.15486635      17.54399109  F       0.05287744      -0.27780597       0.09216858
Si      -0.48357197      -7.52261443      19.47827898  F       0.01662788       0.54727393      -0.75626716
Si       1.45071591       7.52261443      15.60970321  F       0.03504314      -0.06650817       0.03880249
Si       1.45071591       6.15486635      17.54399109  F      -0.05287770       0.27780322       0.09213985
Si       3.38500379      -6.15486635      17.54399109  F       0.02653301      -0.23764174       0.16396483
Si       3.38500379      -7.52261443      19.47827898  F      -0.39688102       0.57228214      -0.86038518
Si       5.31929168      -3.41937020      15.60970321  F      -0.11107780      -0.11404776      -0.05716838
Si       5.31929168      -4.78711827      17.54399109  F      -0.21813805       0.27920897       0.22544987
Si      -4.35214774      -0.68387404      17.54399109  F       0.17215527      -0.33769084       0.19344255
Si      -4.35214774      -2.05162212      19.47827898  F       0.81386080      -0.00998487      -0.80022642
Si      -2.41785985      -3.41937020      15.60970321  F      -0.12101800       0.12570112       0.03662865
Si      -2.41785985      -4.78711827      17.54399109  F      -0.12014788      -0.06888335       0.16852591
Si      -0.48357197      -0.68387404      17.54399109  F       0.11351743      -0.04845791       0.13424916
Si      -0.48357197      -2.05162212      19.47827898  F       0.08890723      -0.23370217      -0.13405906
Si       1.45071591      -3.41937020      15.60970321  F      -0.07472724       0.11129848       0.00618755
Si       1.45071591      -4.78711827      17.54399109  F      -0.12821413       0.00852606       0.22769074
Si       3.38500379      -0.68387404      17.54399109  F       0.07848052      -0.00855587       0.09230045
Si       3.38500379      -2.05162212      19.47827898  F       0.18260964      -0.32612781      -0.17445626
Si       5.31929168       2.05162212      15.60970321  F      -0.10146696      -0.18496658      -0.05584814
Si       5.31929168       0.68387404      17.54399109  F      -0.17215493       0.33768512       0.19344146
Si      -4.35214774       4.78711827      17.54399109  F       0.21814577      -0.27920951       0.22544693
Si      -4.35214774       3.41937020      19.47827898  F       0.77662390      -0.02785853      -0.78288384
Si      -2.41785985       2.05162212      15.60970321  F      -0.11084630       0.06898561      -0.06404123
Si      -2.41785985       0.68387404      17.54399109  F      -0.07848225       0.00855710       0.09229596
Si      -0.48357197       4.78711827      17.54399109  F       0.12821300      -0.00852696       0.22770049
Si      -0.48357197       3.41937020      19.47827898  F       0.08816113      -0.22048572      -0.10376641
Si       1.45071591       2.05162212      15.60970321  F      -0.05866596       0.02754217      -0.05819398
Si       1.45071591       0.68387404      17.54399109  F      -0.11351786       0.04845642       0.13425105
Si       3.38500379       4.78711827      17.54399109  F       0.12014348       0.06888843       0.16853058
Si       3.38500379       3.41937020      19.47827898  F       0.23032673      -0.30205534      -0.15031906
