360
Lattice="11.605727294873521 0.0 0.0 0.0 16.412976941613742 0.0 0.0 0.0 38.6857576495784" Properties=species:S:1:pos:R:3:move_mask:L:1:forces:R:3 energy=-1745.4154897497397 free_energy=-1745.4154897497397 pbc="F F F"
Si       5.31929168       7.52261443      19.47827898  F      -0.54228209      -0.74227937      -1.09047149
Si       5.31929168       6.15486635     -18.51113504  F      -0.85638674       0.15976008       1.05507090
Si      -4.35214774      -6.15486635     -18.51113504  F       0.85638678      -0.15976016       1.05507105
Si      -4.35214774      -7.52261443     -16.57684715  F       0.06914299       0.94437712      -0.22496715
Si      -2.41785985       7.52261443      19.47827898  F       0.39635143      -0.57380885      -0.86135205
Si      -2.41785985       6.15486635     -18.51113504  F      -0.11494994      -0.24193531       0.66395129
Si      -0.48357197      -6.15486635     -18.51113504  F       0.05494302       0.07918286       0.64001107
Si      -0.48357197      -7.52261443     -16.57684715  F      -0.00156585       0.36819725      -0.25427155
Si       1.45071591       7.52261443      19.47827898  F      -0.01695317      -0.54832447      -0.75759740
Si       1.45071591       6.15486635     -18.51113504  F      -0.05494298      -0.07918275       0.64001085
Si       3.38500379      -6.15486635     -18.51113504  F       0.11494988       0.24193551       0.66395123
Si       3.38500379      -7.52261443     -16.57684715  F      -0.10865909       0.43393705      -0.17593798
Si       5.31929168      -3.41937020      19.47827898  F      -0.77717727       0.02698605      -0.78479734
Si       5.31929168      -4.78711827     -18.51113504  F      -0.80104176       0.02990866       0.77358808
Si      -4.35214774      -0.68387404     -18.51113504  F       0.80578647       0.00471448       0.80302863
Si      -4.35214774      -2.05162212     -16.57684715  F       0.17834287       0.31081080      -0.18588532
Si      -2.41785985      -3.41937020      19.47827898  F      -0.23020141       0.30043741      -0.15135438
Si      -2.41785985      -4.78711827     -18.51113504  F      -0.23085631      -0.26338587       0.16561488
Si      -0.48357197      -0.68387404     -18.51113504  F       0.08819043       0.22206384       0.11552825
Si      -0.48357197      -2.05162212     -16.57684715  F       0.11523633      -0.00348294      -0.15921868
Si       1.45071591      -3.41937020      19.47827898  F      -0.08826942       0.21921420      -0.10428053
Si       1.45071591      -4.78711827     -18.51113504  F      -0.08720519      -0.07407394       0.07277741
Si       3.38500379      -0.68387404     -18.51113504  F       0.19609930       0.34383857       0.16348968
Si       3.38500379      -2.05162212     -16.57684715  F       0.06554295      -0.05000176      -0.11962292
Si       5.31929168       2.05162212      19.47827898  F      -0.81476041       0.00941669      -0.80256300
Si       5.31929168       0.68387404     -18.51113504  F      -0.80578632      -0.00471443       0.80302845
Si      -4.35214774       4.78711827     -18.51113504  F       0.80104209      -0.02990866       0.77358848
Si      -4.35214774       3.41937020     -16.57684715  F       0.15605640       0.29520380      -0.19055839
Si      -2.41785985       2.05162212      19.47827898  F      -0.18261041       0.32515177      -0.17585768
Si      -2.41785985       0.68387404     -18.51113504  F      -0.19609936      -0.34383843       0.16348974
Si      -0.48357197       4.78711827     -18.51113504  F       0.08720516       0.07407400       0.07277781
Si      -0.48357197       3.41937020     -16.57684715  F       0.11458514       0.01214003      -0.14288022
Si       1.45071591       2.05162212      19.47827898  F      -0.08874576       0.23286138      -0.13541869
Si       1.45071591       0.68387404     -18.51113504  F      -0.08819037      -0.22206373       0.11552822
Si       3.38500379       4.78711827     -18.51113504  F       0.23085633       0.26338590       0.16561519
Si       3.38500379       3.41937020     -16.57684715  F       0.11003571       0.02102963      -0.11157542
Si       5.31929168       7.52261443     -16.57684715  F      -0.06914304      -0.94437714      -0.22496710
Si       5.31929168       6.15486635     -14.64255927  F      -0.46780889       0.43932446       0.09197520
Si      -4.35214774      -6.15486635     -14.64255927  F       0.46780975      -0.43932486       0.09197686
Si      -4.35214774      -7.52261443     -12.70827139  F      -0.04948751       0.32758776      -0.58197640
Si      -2.41785985       7.52261443     -16.57684715  F       0.10865875      -0.43393717      -0.17593756
Si      -2.41785985       6.15486635     -14.64255927  F      -0.03362029      -0.11784894       0.08732403
Si      -0.48357197      -6.15486635     -14.64255927  F      -0.14796608       0.00851007      -0.03043701
Si      -0.48357197      -7.52261443     -12.70827139  F      -0.10831397       0.41393405       0.74604035
Si       1.45071591       7.52261443     -16.57684715  F       0.00156542      -0.36819788      -0.25427103
Si       1.45071591       6.15486635     -14.64255927  F       0.14796511      -0.00851045      -0.03043744
Si       3.38500379      -6.15486635     -14.64255927  F       0.03362243       0.11784859       0.08732458
Si       3.38500379      -7.52261443     -12.70827139  F      -0.17466755       0.16462944       0.08896053
Si       5.31929168      -3.41937020     -16.57684715  F      -0.15605641      -0.29520451      -0.19055937
Si       5.31929168      -4.78711827     -14.64255927  F      -0.14656789       0.13880521       0.07985232
Si      -4.35214774      -0.68387404     -14.64255927  F       0.12782558      -0.17540176       0.07841853
Si      -4.35214774      -2.05162212     -12.70827139  F       0.14183842      -0.00506050       0.03033193
Si      -2.41785985      -3.41937020     -16.57684715  F      -0.11003631      -0.02102928      -0.11157561
Si      -2.41785985      -4.78711827     -14.64255927  F      -0.19080961      -0.17903748       0.22622803
Si      -0.48357197      -0.68387404     -14.64255927  F       0.08645783       0.00719978       0.07134811
Si      -0.48357197      -2.05162212     -12.70827139  F       0.07169332       0.06225725       0.13962197
Si       1.45071591      -3.41937020     -16.57684715  F      -0.11458592      -0.01213990      -0.14288077
Si       1.45071591      -4.78711827     -14.64255927  F      -0.04115238      -0.14581125       0.12549987
Si       3.38500379      -0.68387404     -14.64255927  F       0.13312465       0.08746212       0.08610962
Si       3.38500379      -2.05162212     -12.70827139  F       0.15115590       0.07997762       0.01847622
Si       5.31929168       2.05162212     -16.57684715  F      -0.17834289      -0.31081162      -0.18588589
Si       5.31929168       0.68387404     -14.64255927  F      -0.12782302       0.17540537       0.07841642
Si      -4.35214774       4.78711827     -14.64255927  F       0.14657206      -0.13880258       0.07985352
Si      -4.35214774       3.41937020     -12.70827139  F       0.13350822       0.12910286       0.20933503
Si      -2.41785985       2.05162212     -16.57684715  F      -0.06554337       0.05000240      -0.11962278
Si      -2.41785985       0.68387404     -14.64255927  F      -0.13312324      -0.08746099       0.08611015
Si      -0.48357197       4.78711827     -14.64255927  F       0.04115337       0.14581297       0.12550140
Si      -0.48357197       3.41937020     -12.70827139  F      -0.10890354      -0.46059041      -0.18904107
Si       1.45071591       2.05162212     -16.57684715  F      -0.11523701       0.00348317      -0.15921871
Si       1.45071591       0.68387404     -14.64255927  F      -0.08645774      -0.00719841       0.07134689
Si       3.38500379       4.78711827     -14.64255927  F       0.19081070       0.17903904       0.22622900
Si       3.38500379       3.41937020     -12.70827139  F       0.03156786       0.05340158      -0.03988972
Si       5.31929168       7.52261443     -12.70827139  F       0.04948583      -0.32759120      -0.58197694
Si       3.48445916       7.10662094     -11.34062924  T      -0.00012615      -0.00078100      -0.00004390
Si      -2.51731237      -7.10662718     -11.34063156  T       0.00013038       0.00078924      -0.00004145
Si      -1.94526607      -7.94932135      -9.02169203  T      -0.00049756       0.00038783       0.00030645
Si      -2.41785985       7.52261443     -12.70827139  F       0.17467072      -0.16465010       0.08898511
Si      -2.44237691       6.16439111     -10.74443185  T       0.00021724      -0.00030762       0.00001701
Si      -0.11073937      -5.98123112     -10.88298546  T       0.00028270       0.00030180      -0.00013004
Si       0.18267676      -6.95292893      -8.75600790  T      -0.00082061       0.00009306       0.00006569
Si       1.45071591       7.52261443     -12.70827139  F       0.10832363      -0.41394995       0.74605914
Si       1.07789760       5.98122422     -10.88298315  T      -0.00029338      -0.00029955      -0.00013157
Si       3.40953554      -6.16439476     -10.74443588  T      -0.00021983       0.00030705       0.00001694
Si       2.57144477      -7.24506089      -8.70832604  T      -0.00015163      -0.00016457       0.00017548
Si       5.31929168      -3.41937020     -12.70827139  F      -0.13349746      -0.12911102       0.20931785
Si       5.27523894      -4.71674863     -10.67917933  T       0.00003058       0.00020062      -0.00007193
Si      -4.28704108      -0.81069915     -10.70306344  T      -0.00038598      -0.00092593      -0.00029329
Si      -4.23912785      -2.11328739      -8.73029850  T      -0.00005757       0.00022878      -0.00066901
Si      -2.41785985      -3.41937020     -12.70827139  F      -0.03156043      -0.05340998      -0.03988976
Si      -2.15528602      -4.80797168     -10.79383557  T       0.00017514      -0.00048892       0.00008518
Si      -0.48408464      -0.68237887     -10.72748689  T      -0.00005952      -0.00045359       0.00016805
Si      -0.48516931      -2.00062133      -8.72283670  T      -0.00024645      -0.00007378       0.00005508
Si       1.45071591      -3.41937020     -12.70827139  F       0.10891033       0.46058345      -0.18905167
Si       1.69855576      -4.57362298     -10.70023955  T      -0.00014982       0.00028825      -0.00020924
Si       3.41801913      -0.66178619     -10.73697432  T      -0.00008930       0.00000824       0.00005602
Si       3.48243947      -1.91336853      -8.69418884  T       0.00009785       0.00078021      -0.00017811
Si       5.31929168       2.05162212     -12.70827139  F      -0.14183184       0.00504622       0.03032038
Si       5.25420019       0.81068583     -10.70307160  T       0.00039837       0.00094906      -0.00028577
Si      -4.30807389       4.71673601     -10.67916993  T      -0.00002881      -0.00019687      -0.00007378
Si      -4.24077767       3.52403322      -8.63318945  T       0.00003671       0.00074838      -0.00002298
Si      -2.41785985       2.05162212     -12.70827139  F      -0.15114858      -0.07999450       0.01848628
Si      -2.45086190       0.66177885     -10.73697359  T       0.00007382      -0.00002341       0.00005621
Si      -0.73139905       4.57361568     -10.70023317  T       0.00015269      -0.00028668      -0.00020965
Si      -0.56679659       3.22056605      -8.71345515  T       0.00012634      -0.00035281      -0.00039429
Si       1.45071591       2.05162212     -12.70827139  F      -0.07168401      -0.06227430       0.13962532
Si       1.45124077       0.68237017     -10.72748921  T       0.00005962       0.00045541       0.00017173
Si       3.12244246       4.80796495     -10.79383128  T      -0.00016884       0.00046898       0.00008561
Si       3.31228617       3.51477514      -8.75747836  T       0.00037221      -0.00011928       0.00014282
Si       2.91243001       7.94930072      -9.02168210  T       0.00050217      -0.00038785       0.00030671
Si       3.64763572       7.07499652      -6.77652382  T       0.00051031      -0.00042440       0.00020207
Si      -2.68045999      -7.07503054      -6.77652748  T      -0.00049642       0.00049542       0.00020110
Si      -1.97546624      -7.98741678      -4.58948138  T       0.00006147       0.00026050      -0.00075053
Si      -1.60427691       7.24503417      -8.70830990  T       0.00015025       0.00016597       0.00017522
Si      -2.18119338       6.12704605      -6.64521956  T       0.00056707       0.00010116       0.00000846
Si      -0.28697872      -5.84402082      -6.70702494  T       0.00001692       0.00037207      -0.00038800
Si       0.08829412      -6.86271259      -4.60996020  T      -0.00049460       0.00040889      -0.00007444
Si       0.78448981       6.95290520      -8.75599647  T       0.00082188      -0.00010164       0.00007617
Si       1.25416165       5.84398730      -6.70701917  T      -0.00010097      -0.00034023      -0.00038950
Si       3.14837088      -6.12708094      -6.64523478  T      -0.00056864      -0.00009771       0.00001078
Si       2.43353324      -7.27004864      -4.61749333  T      -0.00019047      -0.00003564      -0.00014131
Si       5.20794866      -3.52405183      -8.63319705  T      -0.00003035      -0.00075663      -0.00002392
Si       5.11929412      -4.82131483      -6.63016394  T       0.00056939       0.00014405      -0.00010787
Si      -4.29095759      -0.89905294      -6.69412390  T       0.00025350       0.00024857       0.00012139
Si      -4.28267221      -2.10840134      -4.65380788  T      -0.00018399      -0.00012981       0.00050638
Si      -2.34511662      -3.51479810      -8.75747530  T      -0.00040244       0.00018047       0.00011487
Si      -2.34369065      -4.72771774      -6.71043602  T      -0.00031621      -0.00014317       0.00029053
Si      -0.49225308      -0.67708618      -6.69396697  T       0.00090724      -0.00011506      -0.00010068
Si      -0.50604471      -1.95081879      -4.64841773  T      -0.00063371       0.00023182      -0.00036415
Si       1.53396495      -3.22058529      -8.71345918  T      -0.00013465       0.00034883      -0.00039118
Si       1.55464885      -4.42045394      -6.65823584  T      -0.00023814      -0.00042608      -0.00006908
Si       3.45853678      -0.60677057      -6.68311924  T       0.00044047      -0.00047060      -0.00058128
Si       3.50458434      -1.88178950      -4.64513165  T      -0.00036280       0.00014832       0.00027473
Si       5.20629502       2.11326920      -8.73030282  T       0.00008742      -0.00027188      -0.00066784
Si       5.25813584       0.89901892      -6.69413459  T      -0.00021827      -0.00018316       0.00013018
Si      -4.15211703       4.82128076      -6.63014729  T      -0.00056867      -0.00013837      -0.00010869
Si      -4.17977262       3.58191644      -4.59891919  T       0.00023058       0.00026583      -0.00042761
Si      -2.51527060       1.91334610      -8.69418097  T      -0.00009799      -0.00075503      -0.00018572
Si      -2.49135437       0.60674102      -6.68311511  T      -0.00048649       0.00042483      -0.00057851
Si      -0.58746996       4.42042092      -6.65822607  T       0.00025456       0.00043969      -0.00006736
Si      -0.55709297       3.13163214      -4.64277573  T      -0.00095155       0.00007542       0.00016430
Si       1.45233769       2.00060184      -8.72283461  T       0.00024169       0.00006836       0.00005244
Si       1.45943351       0.67705481      -6.69396925  T      -0.00090567       0.00011887      -0.00009535
Si       3.31086836       4.72769304      -6.71043326  T       0.00035914       0.00000045       0.00027970
Si       3.33956361       3.46731550      -4.66200544  T       0.00092081       0.00033750       0.00035314
Si       2.94265185       7.98737791      -4.58947219  T      -0.00004910      -0.00025681      -0.00075776
Si       3.94818714       6.99603102      -2.59990879  T       0.00003068      -0.00079699       0.00068561
Si      -2.98099280      -6.99608093      -2.59990865  T      -0.00000430       0.00089280       0.00068165
Si      -2.07715887      -7.89721271      -0.53464900  T       0.00036255       0.00007093      -0.00050904
Si      -1.46634729       7.27000666      -4.61747795  T       0.00018653       0.00003550      -0.00013483
Si      -2.11470027       6.13946523      -2.57575976  T       0.00040069       0.00012130       0.00026505
Si      -0.27309584      -5.69741531      -2.58995766  T      -0.00028162       0.00048081       0.00002073
Si       0.01264280      -6.81880455      -0.53893836  T       0.00064024      -0.00070560       0.00004925
Si       0.87889224       6.86267402      -4.60995071  T       0.00050131      -0.00043841      -0.00006466
Si       1.24030635       5.69736583      -2.58995459  T      -0.00001486      -0.00044385       0.00002048
Si       3.08189336      -6.13951996      -2.57576890  T      -0.00039573      -0.00010818       0.00026840
Si       2.35210110      -7.26844601      -0.54763882  T      -0.00028884       0.00108088       0.00000290
Si       5.14695894      -3.58196132      -4.59892923  T      -0.00022453      -0.00027395      -0.00042749
Si       5.05639319      -4.84001571      -2.57142092  T       0.00026411      -0.00008051      -0.00038433
Si      -4.32269505      -0.87521425      -2.62178080  T       0.00001824       0.00005517      -0.00070108
Si      -4.32042168      -2.06933208      -0.56912046  T      -0.00020439      -0.00007054       0.00004541
Si      -2.37236916      -3.46736206      -4.66200240  T      -0.00100391      -0.00020313       0.00032377
Si      -2.36658279      -4.70680024      -2.61103865  T      -0.00057310       0.00018915      -0.00054365
Si      -0.50615571      -0.65721810      -2.61008475  T      -0.00054435       0.00056500       0.00012978
Si      -0.52124343      -1.93234982      -0.56480245  T       0.00001775       0.00013307       0.00002806
Si       1.52428506      -3.13167384      -4.64278067  T       0.00092362      -0.00009313       0.00017580
Si       1.58443192      -4.34355250      -2.59172310  T      -0.00002501       0.00020353       0.00002170
Si       3.47949730      -0.61532244      -2.60692815  T      -0.00028427       0.00025633       0.00026216
Si       3.51126797      -1.88009891      -0.55917390  T      -0.00060505      -0.00078599      -0.00025845
Si       5.24985898       2.10836447      -4.65381264  T       0.00026040       0.00003479       0.00050901
Si       5.28988858       0.87516283      -2.62178750  T       0.00003884       0.00004945      -0.00069585
Si      -4.08920418       4.83996761      -2.57141121  T      -0.00026572       0.00008334      -0.00038391
Si      -4.15364092       3.61118894      -0.53219749  T       0.00063825      -0.00016970       0.00055977
Si      -2.53739445       1.88174604      -4.64512355  T       0.00037486      -0.00010368       0.00026664
Si      -2.51229562       0.61527626      -2.60692489  T       0.00020775      -0.00032751       0.00026438
Si      -0.61723844       4.34349915      -2.59171759  T       0.00013729      -0.00011384       0.00002473
Si      -0.55057904       3.10315209      -0.55692578  T       0.00020170       0.00035090      -0.00001643
Si       1.47323599       1.95077802      -4.64841612  T       0.00063368      -0.00023996      -0.00036783
Si       1.47335464       0.65716965      -2.61008630  T       0.00054691      -0.00056119       0.00013361
Si       3.33377417       4.70676548      -2.61103754  T       0.00071369      -0.00044320      -0.00055638
Si       3.37701373       3.42557224      -0.57438107  T      -0.00005040      -0.00019444      -0.00042099
Si       3.04435567       7.89716562      -0.53464888  T      -0.00034231      -0.00006298      -0.00051035
Si       4.02933749       6.93730457       1.47608974  T       0.00065215      -0.00011673      -0.00064442
Si      -3.06213895      -6.93735833       1.47609294  T      -0.00061947       0.00022988      -0.00064507
Si      -2.15890178      -7.84199372       3.54492969  T       0.00002806      -0.00015189      -0.00026016
Si      -1.38490460       7.26839592      -0.54763610  T       0.00028298      -0.00108335       0.00000563
Si      -2.06018752       6.15364839       1.49469026  T       0.00046532      -0.00037234      -0.00059784
Si      -0.31554689      -5.66427253       1.49142417  T      -0.00115411       0.00048182      -0.00023034
Si      -0.04741959      -6.80263036       3.53704805  T      -0.00009205       0.00035947      -0.00027470
Si       0.95455457       6.81875922      -0.53893701  T      -0.00062981       0.00066083       0.00005316
Si       1.28276553       5.66422025       1.49142208  T       0.00079193      -0.00043723      -0.00023008
Si       3.02738512      -6.15370681       1.49469418  T      -0.00045790       0.00038787      -0.00059777
Si       2.28768243      -7.27697559       3.52157205  T      -0.00010600       0.00030199      -0.00061641
Si       5.12083663      -3.61124542      -0.53220041  T      -0.00063300       0.00016118       0.00056030
Si       5.01160046      -4.86817630       1.49515818  T       0.00003953       0.00027113       0.00004264
Si      -4.34174382      -0.84142796       1.46971841  T      -0.00040674       0.00030890      -0.00034538
Si      -4.34216702      -2.02749444       3.52811961  T       0.00011586      -0.00018282       0.00019238
Si      -2.40980511      -3.42563136      -0.57437889  T      -0.00007457       0.00038266      -0.00043842
Si      -2.40318627      -4.66285597       1.47820178  T       0.00021023      -0.00034440      -0.00006566
Si      -0.51198137      -0.64866300       1.47904969  T      -0.00032995       0.00031386       0.00016243
Si      -0.53340075      -1.92116638       3.52538090  T      -0.00027443       0.00003657       0.00006319
Si       1.51778474      -3.10320468      -0.55692700  T      -0.00025193      -0.00038385      -0.00001240
Si       1.55896786      -4.33362827       1.48620296  T      -0.00028534       0.00006029       0.00034452
Si       3.48309178      -0.62727255       1.48556192  T      -0.00059705      -0.00068352       0.00036669
Si       3.49788096      -1.89828683       3.52936934  T      -0.00022549      -0.00020407       0.00049237
Si       5.28761826       2.06928531      -0.56912241  T       0.00031311      -0.00005998       0.00004512
Si       5.30894100       0.84137247       1.46971943  T       0.00047612      -0.00018849      -0.00034412
Si      -4.04440777       4.86812626       1.49515469  T      -0.00004259      -0.00026954       0.00004340
Si      -4.12536648       3.64313626       3.53678200  T       0.00079725      -0.00030065      -0.00017871
Si      -2.54406706       1.88004473      -0.55917150  T       0.00063192       0.00084704      -0.00026290
Si      -2.51588471       0.62722289       1.48556123  T       0.00050437       0.00060137       0.00036762
Si      -0.59177009       4.33357115       1.48620038  T       0.00042481       0.00004810       0.00034426
Si      -0.52895860       3.10784656       3.52942588  T       0.00043916      -0.00017215      -0.00047551
Si       1.48844711       1.93229810      -0.56480252  T      -0.00001056      -0.00014259       0.00002659
Si       1.47918527       0.64861093       1.47904958  T       0.00033297      -0.00031018       0.00016387
Si       3.37038098       4.66282023       1.47820016  T      -0.00003874       0.00003999      -0.00007588
Si       3.40490112       3.39020080       3.51865816  T       0.00015722      -0.00053244      -0.00024237
Si       3.12609666       7.84194979       3.54492150  T      -0.00000975       0.00015828      -0.00025932
Si       4.11232861       6.88630191       5.56429365  T       0.00003457      -0.00020259       0.00010599
Si      -3.14513825      -6.88634603       5.56429969  T      -0.00000318       0.00030033       0.00010727
Si      -2.28221729      -7.75822398       7.65674846  T       0.00008594      -0.00008549      -0.00041718
Si      -1.32048799       7.27692926       3.52156014  T       0.00010169      -0.00030555      -0.00061636
Si      -2.01527587       6.17864165       5.56585444  T       0.00072518       0.00037455       0.00018397
Si      -0.36050859      -5.66184326       5.57989755  T      -0.00001206       0.00021025      -0.00019130
Si      -0.10784850      -6.82500685       7.61646430  T      -0.00049066       0.00007539      -0.00042278
Si       1.01461484       6.80258805       3.53704095  T       0.00010155      -0.00040189      -0.00027758
Si       1.32771362       5.66180018       5.57989146  T      -0.00028385      -0.00016835      -0.00018885
Si       2.98246494      -6.17868695       5.56586892  T      -0.00072130      -0.00036165       0.00018254
Si       2.24261176      -7.29803716       7.59004006  T       0.00011835      -0.00018768      -0.00021055
Si       5.09256012      -3.64318736       3.53678858  T      -0.00079173       0.00029175      -0.00017914
Si       4.97171338      -4.89605611       5.56227626  T       0.00022687       0.00018896      -0.00018435
Si      -4.34022969      -0.80096744       5.56851166  T       0.00022031       0.00027738      -0.00055377
Si      -4.33519363      -1.99391279       7.62161231  T      -0.00023637      -0.00010126      -0.00039919
Si      -2.43769540      -3.39025636       3.51865911  T      -0.00028544       0.00072409      -0.00024422
Si      -2.43434854      -4.63098941       5.56935400  T      -0.00018406       0.00049440      -0.00015490
Si      -0.51247678      -0.64271457       5.57034791  T      -0.00073345      -0.00000761      -0.00007785
Si      -0.52935921      -1.91437081       7.61662051  T      -0.00012459       0.00016653      -0.00035388
Si       1.49616088      -3.10789487       3.52943004  T      -0.00048965       0.00014037      -0.00048105
Si       1.52803821      -4.34875220       5.56919657  T      -0.00031347      -0.00071454      -0.00003477
Si       3.46945858      -0.65234255       5.58003893  T       0.00022537      -0.00022015      -0.00008683
Si       3.46977895      -1.93139542       7.61923477  T      -0.00053848       0.00025493      -0.00088000
Si       5.30936060       2.02745196       3.52812146  T      -0.00000477       0.00004891       0.00018906
Si       5.30741788       0.80092283       5.56851919  T      -0.00015789      -0.00017153      -0.00055541
Si      -4.00452742       4.89601623       5.56226215  T      -0.00022805      -0.00018816      -0.00018409
Si      -4.13320843       3.64134611       7.58270429  T      -0.00004321      -0.00005392      -0.00000401
Si      -2.53068337       1.89823679       3.52936400  T       0.00025280       0.00026498       0.00049342
Si      -2.50226280       0.65230460       5.58003465  T      -0.00030781       0.00014798      -0.00008559
Si      -0.56085108       4.34870658       5.56918742  T       0.00042964       0.00079891      -0.00003790
Si      -0.50123957       3.14751155       7.62712417  T       0.00026463       0.00017210       0.00022481
Si       1.50060094       1.92111895       3.52537913  T       0.00028328      -0.00004783       0.00006299
Si       1.47966915       0.64267406       5.57034922  T       0.00073776       0.00001007      -0.00007953
Si       3.40153466       4.63096150       5.56935018  T       0.00031819      -0.00075714      -0.00016351
Si       3.40209371       3.36234135       7.61046272  T      -0.00023679       0.00003193      -0.00006413
Si       3.24939880       7.75819219       7.65673397  T      -0.00007261       0.00009011      -0.00041377
Si       4.44315643       6.71608013       9.52738275  T      -0.00039717       0.00087223       0.00012334
Si      -3.47598058      -6.71610580       9.52739188  T       0.00043298      -0.00080209       0.00013044
Si      -2.83133599      -7.12466418      11.82005789  T      -0.00009506       0.00020595       0.00024115
Si      -1.27542961       7.29800347       7.59002094  T      -0.00011952       0.00018640      -0.00021279
Si      -2.08198922       6.17081453       9.58053632  T       0.00071501       0.00006107      -0.00027760
Si      -0.38885390      -5.76997881       9.69891164  T       0.00099354       0.00007475       0.00004966
Si      -0.16329257      -7.19698686      11.59281936  T      -0.00047864      -0.00011200       0.00002510
Si       1.07503066       6.82497571       7.61645279  T       0.00049607      -0.00010291      -0.00043539
Si       1.35603235       5.76995463       9.69890499  T      -0.00113504      -0.00004889       0.00005339
Si       3.04916112      -6.17083526       9.58055108  T      -0.00072545      -0.00005056      -0.00027959
Si       2.31033171      -7.05281573      11.66886524  T       0.00070259      -0.00011262      -0.00011339
Si       5.10038890      -3.64137819       7.58271524  T       0.00004924       0.00004718      -0.00000525
Si       5.03540569      -4.88901146       9.60790433  T       0.00094051      -0.00021745      -0.00012055
Si      -4.30572937      -0.76675979       9.65644880  T      -0.00043415      -0.00012000       0.00054821
Si      -4.31601626      -1.98402005      11.68687900  T       0.00006066      -0.00022315       0.00000668
Si      -2.43490657      -3.36237929       7.61046290  T       0.00014597       0.00011294      -0.00005707
Si      -2.42233268      -4.64227523       9.63933785  T      -0.00023938       0.00040719      -0.00033950
Si      -0.50326692      -0.65414308       9.66742661  T      -0.00025308       0.00004220      -0.00033923
Si      -0.51033103      -1.99461099      11.67905339  T      -0.00011300       0.00003975      -0.00025253
Si       1.46842364      -3.14754186       7.62712993  T      -0.00030113      -0.00019035       0.00021465
Si       1.49548051      -4.44595748       9.64394208  T       0.00037381      -0.00074200       0.00016600
Si       3.43251022      -0.68854389       9.67236204  T      -0.00014146       0.00052527      -0.00017840
Si       3.42131692      -2.01168026      11.68726298  T      -0.00004024      -0.00070578       0.00051259
Si       5.30237268       1.99388626       7.62161621  T       0.00031846      -0.00000019      -0.00040689
Si       5.27289780       0.76673739       9.65645814  T       0.00047196       0.00018519       0.00054494
Si      -4.06823326       4.88898920       9.60788930  T      -0.00093695       0.00022159      -0.00011960
Si      -4.20523685       3.59870915      11.61429004  T      -0.00079118       0.00004623      -0.00046373
Si      -2.50259743       1.93136257       7.61922555  T       0.00055499      -0.00021029      -0.00087464
Si      -2.46533872       0.68852754       9.67235849  T       0.00009419      -0.00056919      -0.00017751
Si      -0.52831346       4.44593541       9.64393338  T      -0.00030732       0.00077202       0.00016341
Si      -0.47884418       3.31190857      11.73280585  T       0.00110175       0.00065293       0.00042944
Si       1.49654144       1.91434060       7.61661787  T       0.00012969      -0.00017557      -0.00035440
Si       1.47043625       0.65412434       9.66742818  T       0.00025452      -0.00003995      -0.00034193
Si       3.38950350       4.64226247       9.63933196  T       0.00028107      -0.00057270      -0.00034471
Si       3.40651280       3.40717849      11.70483175  T      -0.00022093       0.00020675      -0.00019705
Si       3.79849221       7.12465520      11.82003758  T       0.00009729      -0.00020734       0.00024544
Si       5.31929168       6.15486635      13.67541533  F      -0.72825576       0.37683188      -0.14020444
Si      -4.35214774      -6.15486635      13.67541533  F       0.72824919      -0.37683658      -0.14019742
Si      -4.35214774      -7.52261443      15.60970321  F       0.23026483       0.74734113       0.10093390
Si      -1.34316037       7.05278551      11.66885722  T      -0.00070723       0.00011056      -0.00011281
Si      -2.41785985       6.15486635      13.67541533  F       0.29340915       0.02054644       0.15247802
Si      -0.48357197      -6.15486635      13.67541533  F       0.05449322       0.32406875       0.21535012
Si      -0.48357197      -7.52261443      15.60970321  F      -0.03131035       0.05882599       0.03047735
Si       1.13047270       7.19697427      11.59280847  T       0.00048519       0.00010252       0.00001706
Si       1.45071591       6.15486635      13.67541533  F      -0.05449360      -0.32409040       0.21535461
Si       3.38500379      -6.15486635      13.67541533  F      -0.29340555      -0.02053932       0.15249203
Si       3.38500379      -7.52261443      15.60970321  F      -0.20292365       0.17107948       0.01768116
Si       5.17239808      -3.59871180      11.61429284  T       0.00079443      -0.00005059      -0.00046293
Si       5.31929168      -4.78711827      13.67541533  F      -0.25972510       0.02603204      -0.32366218
Si      -4.35214774      -0.68387404      13.67541533  F       0.16452620      -0.10634150      -0.04325848
Si      -4.35214774      -2.05162212      15.60970321  F       0.10868182       0.17231335      -0.06479831
Si      -2.43935521      -3.40718686      11.70482979  T       0.00019008      -0.00015401      -0.00017485
Si      -2.41785985      -4.78711827      13.67541533  F      -0.23005892      -0.03890988      -0.15854073
Si      -0.48357197      -0.68387404      13.67541533  F       0.05828622       0.07734999      -0.13063829
Si      -0.48357197      -2.05162212      15.60970321  F       0.06064343      -0.03707891      -0.06389202
Si       1.44600135      -3.31191568      11.73280772  T      -0.00111287      -0.00065919       0.00042195
Si       1.45071591      -4.78711827      13.67541533  F       0.00866228       0.08473015      -0.19982279
Si       3.38500379      -0.68387404      13.67541533  F       0.22737905       0.06370985      -0.04020533
Si       3.38500379      -2.05162212      15.60970321  F       0.10861562      -0.07678658      -0.07354737
Si       5.28317149       1.98401658      11.68688032  T      -0.00003249       0.00018295      -0.00000418
Si       5.31929168       0.68387404      13.67541533  F      -0.16451858       0.10633168      -0.04323895
Si      -4.35214774       4.78711827      13.67541533  F       0.25974276      -0.02604985      -0.32368823
Si      -4.35214774       3.41937020      15.60970321  F       0.11400059       0.10090827      -0.06554770
Si      -2.45416047       2.01167103      11.68725773  T       0.00004453       0.00072109       0.00051941
Si      -2.41785985       0.68387404      13.67541533  F      -0.22736815      -0.06372205      -0.04020990
Si      -0.48357197       4.78711827      13.67541533  F      -0.00865007      -0.08474027      -0.19984907
Si      -0.48357197       3.41937020      15.60970321  F       0.07358721      -0.12395772       0.01323643
Si       1.47748807       1.99460354      11.67905096  T       0.00011275      -0.00004376      -0.00025312
Si       1.45071591       0.68387404      13.67541533  F      -0.05827668      -0.07736212      -0.13063524
Si       3.38500379       4.78711827      13.67541533  F       0.23006926       0.03889785      -0.15854133
Si       3.38500379       3.41937020      15.60970321  F       0.12545175      -0.14047636       0.02917381
Si       5.31929168       7.52261443      15.60970321  F      -0.23026543      -0.74733868       0.10093074
Si       5.31929168       6.15486635      17.54399109  F      -0.38223788       0.71030794       0.22622197
Si      -4.35214774      -6.15486635      17.54399109  F       0.38223744      -0.71030822       0.22622243
Si      -4.35214774      -7.52261443      19.47827898  F       0.54228203       0.74227930      -1.09047087
Si      -2.41785985       7.52261443      15.60970321  F       0.20292762      -0.17108397       0.01767665
Si      -2.41785985       6.15486635      17.54399109  F      -0.02499245       0.23585476       0.16081153
Si      -0.48357197      -6.15486635      17.54399109  F       0.05122911      -0.27366574       0.08135910
Si      -0.48357197      -7.52261443      19.47827898  F       0.01695316       0.54832427      -0.75759733
Si       1.45071591       7.52261443      15.60970321  F       0.03131032      -0.05882457       0.03047768
Si       1.45071591       6.15486635      17.54399109  F      -0.05122938       0.27366565       0.08135721
Si       3.38500379      -6.15486635      17.54399109  F       0.02499274      -0.23585432       0.16081104
Si       3.38500379      -7.52261443      19.47827898  F      -0.39635157       0.57380855      -0.86135182
Si       5.31929168      -3.41937020      15.60970321  F      -0.11399987      -0.10090933      -0.06554889
Si       5.31929168      -4.78711827      17.54399109  F      -0.22182907       0.27675561       0.22141525
Si      -4.35214774      -0.68387404      17.54399109  F       0.17421844      -0.33402549       0.18837465
Si      -4.35214774      -2.05162212      19.47827898  F       0.81476047      -0.00941677      -0.80256279
Si      -2.41785985      -3.41937020      15.60970321  F      -0.12545026       0.14047822       0.02917493
Si      -2.41785985      -4.78711827      17.54399109  F      -0.11878626      -0.07223355       0.16586517
Si      -0.48357197      -0.68387404      17.54399109  F       0.11235530      -0.04642329       0.13076867
Si      -0.48357197      -2.05162212      19.47827898  F       0.08874587      -0.23286135      -0.13541863
Si       1.45071591      -3.41937020      15.60970321  F      -0.07358777       0.12395694       0.01323168
Si       1.45071591      -4.78711827      17.54399109  F      -0.12755847       0.00765284       0.22700346
Si       3.38500379      -0.68387404      17.54399109  F       0.07819501      -0.00623985       0.08913924
Si       3.38500379      -2.05162212      19.47827898  F       0.18261028      -0.32515159      -0.17585756
Si       5.31929168       2.05162212      15.60970321  F      -0.10868076      -0.17231378      -0.06479910
Si       5.31929168       0.68387404      17.54399109  F      -0.17421825       0.33402556       0.18837499
Si      -4.35214774       4.78711827      17.54399109  F       0.22182981      -0.27675587       0.22141486
Si      -4.35214774       3.41937020      19.47827898  F       0.77717729      -0.02698586      -0.78479750
Si      -2.41785985       2.05162212      15.60970321  F      -0.10861485       0.07678900      -0.07354845
Si      -2.41785985       0.68387404      17.54399109  F      -0.07819550       0.00623961       0.08913841
Si      -0.48357197       4.78711827      17.54399109  F       0.12755784      -0.00765305       0.22700443
Si      -0.48357197       3.41937020      19.47827898  F       0.08826941      -0.21921374      -0.10428050
Si       1.45071591       2.05162212      15.60970321  F      -0.06064376       0.03708018      -0.06389307
Si       1.45071591       0.68387404      17.54399109  F      -0.11235578       0.04642320       0.13076895
Si       3.38500379       4.78711827      17.54399109  F       0.11878559       0.07223369       0.16586554
Si       3.38500379       3.41937020      19.47827898  F       0.23020131      -0.30043703      -0.15135436
