216
Lattice="11.605727294873521 0.0 0.0 0.0 13.401139555673227 0.0 0.0 0.0 28.428109966331448" Properties=species:S:1:pos:R:3:forces:R:3:energies:R:1 energy=-1164.1964721768654 stress="0.00378600145881458 3.5314324224126363e-17 -2.500117501457555e-17 3.5314324224126363e-17 0.0038102705700529755 1.0116411207199044e-06 -2.500117501457555e-17 1.0116411207199044e-06 0.003820780755163834" free_energy=-1164.1964721768654 pbc="T T T"
Si      11.60572729       0.00052490      20.93597253       0.00000000      -0.00006036      -0.00007668      -5.38144943
Si       0.00000000      13.39873846      23.31104738       0.00000000      -0.00004367       0.00002539      -5.38571434
Si       0.00000000       2.23517166      24.08618323       0.00000000      -0.00000175      -0.00012722      -5.38199808
Si       0.00000000       2.22705144      26.45933853       0.00000000       0.00004623      -0.00002050      -5.37764889
Si       0.00000000       4.46502986      27.24280924       0.00000000       0.00000477      -0.00008173      -5.38982149
Si      11.60572729       4.45837820       1.18164863      -0.00000000      -0.00001817      -0.00004711      -5.38509700
Si       1.93329572       1.10645797      27.25207781      -0.00001583       0.00001430      -0.00007110      -5.38660338
Si       1.90308504       1.06047788       1.18510741      -0.00004400       0.00000417      -0.00001014      -5.35302675
Si       1.94052204       3.35605714      20.91427378       0.00004397      -0.00004567      -0.00004152      -5.38144853
Si       1.93533180       3.35277678      23.28905068       0.00000167      -0.00003930      -0.00000028      -5.38188159
Si       1.93472345       5.58628087      24.08279329      -0.00004354      -0.00003236      -0.00004559      -5.38545487
Si       1.93251420       5.58701293      26.45410587      -0.00004512      -0.00007106       0.00005601      -5.38236426
Si       3.86753185      13.39864767      20.93245371      -0.00000167       0.00003930       0.00000028      -5.38188159
Si       3.86234161      13.39536731      23.30723061      -0.00004397       0.00004567       0.00004152      -5.38144853
Si       3.86861266       2.23339545      24.08401329      -0.00008530       0.00000216      -0.00005060      -5.38565423
Si       3.86756676       2.23092263      26.45613586       0.00003926       0.00004330       0.00002678      -5.38243083
Si       3.86735627       4.46774300      27.24257406      -0.00007984       0.00002945       0.00002191      -5.38732708
Si       3.85811028       4.47075890       1.18437779      -0.00005925       0.00003295       0.00002523      -5.37917802
Si       5.80286365       1.11562381      27.24571115      -0.00000000       0.00001417      -0.00003006      -5.39859496
Si       5.80286365       1.11719712       1.18521643      -0.00000000       0.00005664      -0.00009041      -5.38220292
Si       5.80286365       3.35268598      20.91045701       0.00000000       0.00004367      -0.00002539      -5.38571434
Si       5.80286365       3.34975999      23.28553187      -0.00000000       0.00006036       0.00007668      -5.38144943
Si       5.80286365       5.58361728      24.07880122       0.00000000       0.00001838       0.00000646      -5.38529014
Si       5.80286365       5.58558012      26.45144978      -0.00000000      -0.00000969       0.00001295      -5.38126244
Si       7.73819545      13.39864767      20.93245371       0.00000167       0.00003930       0.00000028      -5.38188159
Si       7.74338568      13.39536731      23.30723061       0.00004397       0.00004567       0.00004152      -5.38144853
Si       7.73711463       2.23339545      24.08401329       0.00008530       0.00000216      -0.00005060      -5.38565423
Si       7.73816053       2.23092263      26.45613586      -0.00003926       0.00004330       0.00002678      -5.38243083
Si       7.73837103       4.46774300      27.24257406       0.00007984       0.00002945       0.00002191      -5.38732708
Si       7.74761702       4.47075890       1.18437779       0.00005925       0.00003295       0.00002523      -5.37917802
Si       9.67243158       1.10645797      27.25207781       0.00001583       0.00001430      -0.00007110      -5.38660338
Si       9.70264226       1.06047788       1.18510741       0.00004400       0.00000417      -0.00001014      -5.35302675
Si       9.66520526       3.35605714      20.91427378      -0.00004397      -0.00004567      -0.00004152      -5.38144853
Si       9.67039550       3.35277678      23.28905068      -0.00000167      -0.00003930      -0.00000028      -5.38188159
Si       9.67100385       5.58628087      24.08279329       0.00004354      -0.00003236      -0.00004559      -5.38545487
Si       9.67321310       5.58701293      26.45410587       0.00004512      -0.00007106       0.00005601      -5.38236426
Si       0.00000000       6.70493941      20.92896600      -0.00000000      -0.00001403       0.00001245      -5.38165029
Si       0.00000000       6.71108599      23.30370462      -0.00000000      -0.00001407       0.00000671      -5.38112773
Si       0.00000000       8.94594901      24.12103819       0.00000000      -0.00001827      -0.00002365      -5.37045069
Si       0.00000000       8.97142902      26.50990195      -0.00000000      -0.00000106       0.00004003      -5.35368343
Si       0.00000000      11.16698263      27.47404022      -0.00000000      -0.00001371      -0.00013883      -5.40063359
B        0.00000000      11.16594955       1.18699290      -0.00000000       0.00002514      -0.00004897      -6.50512027
Si       1.92614212       7.82336521      27.25185851      -0.00002123      -0.00001796      -0.00002072      -5.38631926
Si       1.90306024       7.87108813       1.18465191      -0.00002396      -0.00000069      -0.00001685      -5.35505302
Si       1.93348966      10.05056482      20.93555556      -0.00002572       0.00003562      -0.00001988      -5.38132528
Si       1.93165841      10.05228458      23.31058887      -0.00000623       0.00002731       0.00004117      -5.38527638
Si       1.92477165      12.27854228      24.12201913      -0.00005247       0.00000089      -0.00008194      -5.37042973
Si       1.90266828      12.26502091      26.51146271      -0.00005311      -0.00000598      -0.00000583      -5.35344272
Si       3.87120524       6.69913986      20.91091553       0.00000623      -0.00002731      -0.00004117      -5.38527638
Si       3.86937399       6.70085962      23.28594884       0.00002572      -0.00003562       0.00001988      -5.38132528
Si       3.86779191       8.93281773      24.08776769      -0.00000411       0.00003486      -0.00003655      -5.38256193
Si       3.86265525       8.93776682      26.46032030       0.00005098      -0.00007441       0.00001918      -5.37744544
Si       3.86061876      11.17140944      27.25423599       0.00003649      -0.00001173      -0.00004358      -5.38741882
Si       3.81628425      11.16605688       1.18734426      -0.00001182      -0.00001829       0.00005163      -5.34983242
Si       5.80286365       7.82106226      27.24383776      -0.00000000       0.00002211      -0.00003350      -5.38220755
Si       5.80286365       7.82776207       1.18213051      -0.00000000      -0.00007357       0.00003232      -5.38645554
Si       5.80286365      10.04033846      20.91779978       0.00000000       0.00001407      -0.00000671      -5.38112773
Si       5.80286365      10.04648503      23.29253839       0.00000000       0.00001403      -0.00001245      -5.38165029
Si       5.80286365      12.28067943      24.08957218       0.00000000       0.00001200      -0.00001899      -5.38563260
Si       5.80286365      12.28231666      26.46059739       0.00000000       0.00018112       0.00005950      -5.38286577
Si       7.73452206       6.69913986      20.91091553      -0.00000623      -0.00002731      -0.00004117      -5.38527638
Si       7.73635330       6.70085962      23.28594884      -0.00002572      -0.00003562       0.00001988      -5.38132528
Si       7.73793539       8.93281773      24.08776769       0.00000411       0.00003486      -0.00003655      -5.38256193
Si       7.74307205       8.93776682      26.46032030      -0.00005098      -0.00007441       0.00001918      -5.37744544
Si       7.74510854      11.17140944      27.25423599      -0.00003649      -0.00001173      -0.00004358      -5.38741882
Si       7.78944304      11.16605688       1.18734426       0.00001182      -0.00001829       0.00005163      -5.34983242
Si       9.67958517       7.82336521      27.25185851       0.00002123      -0.00001796      -0.00002072      -5.38631926
Si       9.70266706       7.87108813       1.18465191       0.00002396      -0.00000069      -0.00001685      -5.35505302
Si       9.67223764      10.05056482      20.93555556       0.00002572       0.00003562      -0.00001988      -5.38132528
Si       9.67406888      10.05228458      23.31058887       0.00000623       0.00002731       0.00004117      -5.38527638
Si       9.68095564      12.27854228      24.12201913       0.00005247       0.00000089      -0.00008194      -5.37042973
Si       9.70305902      12.26502091      26.51146271       0.00005311      -0.00000598      -0.00000583      -5.35344272
Si       0.00000000      13.18649797       1.89909566      -0.00000000       0.00005721       0.00010741      -5.39976288
Si       0.00000000      13.36187815       4.29038678       0.00000000       0.00000241      -0.00003245      -5.35432799
Si       0.00000000       2.20567147       5.10949642       0.00000000      -0.00006986       0.00005826      -5.36973047
Si       0.00000000       2.22571204       7.48949216       0.00000000       0.00009865      -0.00003679      -5.38141862
Si       0.00000000       4.46158457       8.28751808       0.00000000       0.00000654       0.00002687      -5.38121755
Si       0.00000000       4.46482063      10.66157592      -0.00000000       0.00002799      -0.00007134      -5.38050729
Si       1.93387983       1.11528693       8.29112379      -0.00003825      -0.00002096       0.00002414      -5.38417603
Si       1.93438884       1.11858990      10.66290049       0.00005826       0.00002308      -0.00000084      -5.38149864
Si       1.92513463       3.31989707       1.96628740      -0.00002410      -0.00001038       0.00004495      -5.37124871
Si       1.93181887       3.34006887       4.33568823      -0.00001602       0.00002424      -0.00003921      -5.38545746
Si       1.93285941       5.58079322       5.12586047      -0.00003731      -0.00000051       0.00001961      -5.37980931
Si       1.93483765       5.58199355       7.49894010       0.00002470       0.00001460      -0.00003410      -5.38543706
Si       3.86125774      13.39586506       1.96773481      -0.00001729      -0.00000212       0.00003209      -5.38717395
Si       3.86276800      13.39711845       4.33806342       0.00001419       0.00000043       0.00000380      -5.37831978
Si       3.86847480       2.23169499       5.13049393      -0.00005826      -0.00002308       0.00000084      -5.38149864
Si       3.86898382       2.23499796       7.50227064       0.00003825       0.00002096      -0.00002414      -5.38417603
Si       3.87088238       4.46961836       8.29321852      -0.00001087       0.00004079      -0.00004124      -5.38327482
Si       3.87683037       4.47355069      10.66840206       0.00004205      -0.00001981      -0.00011122      -5.38560627
Si       5.80286365       1.12457285       8.30390227       0.00000000      -0.00009865       0.00003679      -5.38141862
Si       5.80286365       1.14461342      10.68389800      -0.00000000       0.00006986      -0.00005826      -5.36973047
Si       5.80286365       3.35779670       1.97080423       0.00000000       0.00005091      -0.00003628      -5.38452659
Si       5.80286365       3.35462999       4.34108219      -0.00000000      -0.00001183      -0.00003465      -5.38397369
Si       5.80286365       5.59377226       5.12587927      -0.00000000       0.00005767      -0.00005392      -5.38090707
Si       5.80286365       5.58894474       7.49827908       0.00000000      -0.00008353      -0.00011049      -5.39143875
Si       7.74446955      13.39586506       1.96773481       0.00001729      -0.00000212       0.00003209      -5.38717395
Si       7.74295929      13.39711845       4.33806342      -0.00001419       0.00000043       0.00000380      -5.37831978
Si       7.73725249       2.23169499       5.13049393       0.00005826      -0.00002308       0.00000084      -5.38149864
Si       7.73674348       2.23499796       7.50227064      -0.00003825       0.00002096      -0.00002414      -5.38417603
Si       7.73484492       4.46961836       8.29321852       0.00001087       0.00004079      -0.00004124      -5.38327482
Si       7.72889692       4.47355069      10.66840206      -0.00004205      -0.00001981      -0.00011122      -5.38560627
Si       9.67184746       1.11528693       8.29112379       0.00003825      -0.00002096       0.00002414      -5.38417603
Si       9.67133845       1.11858990      10.66290049      -0.00005826       0.00002308      -0.00000084      -5.38149864
Si       9.68059266       3.31989707       1.96628740       0.00002410      -0.00001038       0.00004495      -5.37124871
Si       9.67390842       3.34006887       4.33568823       0.00001602       0.00002424      -0.00003921      -5.38545746
Si       9.67286788       5.58079322       5.12586047       0.00003731      -0.00000051       0.00001961      -5.37980931
Si       9.67088965       5.58199355       7.49894010      -0.00002470       0.00001460      -0.00003410      -5.38543706
Si       0.00000000       6.70490097       1.96471544       0.00000000      -0.00002330       0.00006742      -5.38388793
Si       0.00000000       6.70474203       4.33487827       0.00000000       0.00005292      -0.00002688      -5.38171104
Si       0.00000000       8.94039231       5.12697374      -0.00000000      -0.00001077       0.00007277      -5.38370346
Si       0.00000000       8.92877948       7.50587952      -0.00000000      -0.00000288       0.00003640      -5.38241711
Si       0.00000000      11.16247971       8.29511535      -0.00000000       0.00008353       0.00011049      -5.39143875
Si      11.60572729      11.15765218      10.66751515       0.00000000      -0.00005767       0.00005392      -5.38090707
Si       1.93864512       7.81317711       8.30219240       0.00000090      -0.00000061       0.00005705      -5.38258889
Si       1.95194281       7.80141844      10.68463249       0.00004244      -0.00004634      -0.00003820      -5.36877300
Si       1.75358863      10.15681659       1.89919198       0.00006948      -0.00002943       0.00008712      -5.39710882
Si       1.90295105      10.06778286       4.29121190      -0.00001808       0.00001575      -0.00002212      -5.35556184
Si       1.92603328      12.27787376       5.12499237      -0.00004205       0.00001981       0.00011122      -5.38560627
Si       1.93198127      12.28180608       7.50017591       0.00001087      -0.00004079       0.00004124      -5.38327482
Si       3.84987164       6.72451620       1.96493397      -0.00003897      -0.00000297      -0.00006172      -5.36869820
Si       3.86212407       6.70951112       4.33412540      -0.00000999      -0.00000491      -0.00010307      -5.38844988
Si       3.85092084       8.95000601       5.10876193      -0.00004244       0.00004634       0.00003820      -5.36877300
Si       3.86421853       8.93824734       7.49120202      -0.00000090       0.00000061      -0.00005705      -5.38258889
Si       3.86802600      11.16943089       8.29445433      -0.00002470      -0.00001460       0.00003410      -5.38543706
Si       3.87000424      11.17063123      10.66753395       0.00003731       0.00000051      -0.00001961      -5.37980931
Si       5.80286365       7.82264497       8.28751490       0.00000000       0.00000288      -0.00003640      -5.38241711
Si       5.80286365       7.81103213      10.66642068       0.00000000       0.00001077      -0.00007277      -5.38370346
Si       5.80286365      10.06551311       1.96382313       0.00000000       0.00003275       0.00000921      -5.35704284
Si       5.80286365      10.05782408       4.33285003       0.00000000      -0.00010211      -0.00005755      -5.38744125
Si       5.80286365      12.28660381       5.13181850       0.00000000      -0.00002799       0.00007134      -5.38050729
Si       5.80286365      12.28983987       7.50587635       0.00000000      -0.00000654      -0.00002687      -5.38121755
Si       7.75585566       6.72451620       1.96493397       0.00003897      -0.00000297      -0.00006172      -5.36869820
Si       7.74360323       6.70951112       4.33412540       0.00000999      -0.00000491      -0.00010307      -5.38844988
Si       7.75480646       8.95000601       5.10876193       0.00004244       0.00004634       0.00003820      -5.36877300
Si       7.74150877       8.93824734       7.49120202       0.00000090       0.00000061      -0.00005705      -5.38258889
Si       7.73770129      11.16943089       8.29445433       0.00002470      -0.00001460       0.00003410      -5.38543706
Si       7.73572306      11.17063123      10.66753395      -0.00003731       0.00000051      -0.00001961      -5.37980931
Si       9.66708218       7.81317711       8.30219240      -0.00000090      -0.00000061       0.00005705      -5.38258889
Si       9.65378448       7.80141844      10.68463249      -0.00004244      -0.00004634      -0.00003820      -5.36877300
Si       9.85213867      10.15681659       1.89919198      -0.00006948      -0.00002943       0.00008712      -5.39710882
Si       9.70277624      10.06778286       4.29121190       0.00001808       0.00001575      -0.00002212      -5.35556184
Si       9.67969402      12.27787376       5.12499237       0.00004205       0.00001981       0.00011122      -5.38560627
Si       9.67374603      12.28180608       7.50017591      -0.00001087      -0.00004079       0.00004124      -5.38327482
Si       0.00000000      13.39679445      11.45231224      -0.00000000       0.00001183       0.00003465      -5.38397369
Si       0.00000000      13.39362774      13.82259019       0.00000000      -0.00005091       0.00003628      -5.38452659
Si       0.00000000       2.23308777      14.60817799      -0.00000000      -0.00005664       0.00009041      -5.38220292
Si       0.00000000       2.23466108      16.97579324      -0.00000000      -0.00001417       0.00003006      -5.39859496
Si       0.00000000       4.46910779      17.76090701       0.00000000      -0.00018112      -0.00005950      -5.38286577
Si      11.60572729       4.47074501      20.13193221      -0.00000000      -0.00001200       0.00001899      -5.38563260
Si       1.93529688       1.11936226      17.76536853      -0.00003926      -0.00004330      -0.00002678      -5.38243083
Si       1.93425098       1.11688944      20.13749110       0.00008530      -0.00000216       0.00005060      -5.38565423
Si       1.94009564       3.35430599      11.45533101      -0.00001419      -0.00000043      -0.00000380      -5.37831978
Si       1.94160591       3.35555938      13.82565961       0.00001729       0.00000212      -0.00003209      -5.38717395
Si       1.98657940       5.58536756      14.60605017       0.00001182       0.00001829      -0.00005163      -5.34983242
Si       1.94224489       5.58001500      16.96726841      -0.00003649       0.00001173       0.00004358      -5.38741882
Si       3.87104477       0.01021602      11.45770619       0.00001602      -0.00002424       0.00003921      -5.38545746
Si       3.87772902       0.03038782      13.82710703       0.00002410       0.00001038      -0.00004495      -5.37124871
Si       3.89977861       2.28980701      14.60828702       0.00004400      -0.00000417       0.00001014      -5.35302675
Si       3.86956793       2.24382692      16.96942659       0.00001583      -0.00001430       0.00007110      -5.38660338
Si       3.90019537       4.48640353      17.71004168       0.00005311       0.00000598       0.00000583      -5.35344272
Si       3.87809200       4.47288217      20.09948526       0.00005247      -0.00000089       0.00008194      -5.37042973
Si       5.80286365       1.12323345      17.76216586      -0.00000000      -0.00004623       0.00002050      -5.37764889
Si       5.80286365       1.11511323      20.13532117      -0.00000000       0.00000175       0.00012722      -5.38199808
Si       5.80286365       3.38954629      11.50300764       0.00000000      -0.00000241       0.00003245      -5.35432799
Si       5.80286365       3.56492648      13.89429876       0.00000000      -0.00005721      -0.00010741      -5.39976288
B        5.80286365       5.58547490      14.60640152       0.00000000      -0.00002514       0.00004897      -6.50512027
Si       5.80286365       5.58444181      16.74746417      -0.00000000       0.00001371       0.00013883      -5.40063359
Si       7.73468252       0.01021602      11.45770619      -0.00001602      -0.00002424       0.00003921      -5.38545746
Si       7.72799828       0.03038782      13.82710703      -0.00002410       0.00001038      -0.00004495      -5.37124871
Si       7.70594869       2.28980701      14.60828702      -0.00004400      -0.00000417       0.00001014      -5.35302675
Si       7.73615936       2.24382692      16.96942659      -0.00001583      -0.00001430       0.00007110      -5.38660338
Si       7.70553193       4.48640353      17.71004168      -0.00005311       0.00000598       0.00000583      -5.35344272
Si       7.72763530       4.47288217      20.09948526      -0.00005247      -0.00000089       0.00008194      -5.37042973
Si       9.67043041       1.11936226      17.76536853       0.00003926      -0.00004330      -0.00002678      -5.38243083
Si       9.67147631       1.11688944      20.13749110      -0.00008530      -0.00000216       0.00005060      -5.38565423
Si       9.66563165       3.35430599      11.45533101       0.00001419      -0.00000043      -0.00000380      -5.37831978
Si       9.66412139       3.35555938      13.82565961      -0.00001729       0.00000212      -0.00003209      -5.38717395
Si       9.61914790       5.58536756      14.60605017      -0.00001182       0.00001829      -0.00005163      -5.34983242
Si       9.66348241       5.58001500      16.96726841       0.00003649       0.00001173       0.00004358      -5.38741882
Si       0.00000000       6.69360037      11.46054439       0.00000000       0.00010211       0.00005755      -5.38744125
Si       0.00000000       6.68591134      13.82957129       0.00000000      -0.00003275      -0.00000921      -5.35704284
Si       0.00000000       8.92366237      14.61126392      -0.00000000       0.00007357      -0.00003232      -5.38645554
Si       0.00000000       8.93036219      16.97766663      -0.00000000      -0.00002211       0.00003350      -5.38220755
Si       0.00000000      11.16584432      17.77005461      -0.00000000       0.00000969      -0.00001295      -5.38126244
Si      11.60572729      11.16780717      20.14270317      -0.00000000      -0.00001838      -0.00000646      -5.38529014
Si       1.94020840       7.81365763      17.76118409      -0.00005098       0.00007441      -0.00001918      -5.37744544
Si       1.93507174       7.81860672      20.13373670       0.00000411      -0.00003486       0.00003655      -5.38256193
Si       1.94073958      10.04191333      11.45926903       0.00000999       0.00000491       0.00010307      -5.38844988
Si       1.95299201      10.02690824      13.82846045       0.00003897       0.00000297       0.00006172      -5.36869820
Si       1.94475337      12.28066555      14.60901663       0.00005925      -0.00003295      -0.00002523      -5.37917802
Si       1.93550738      12.28368145      16.97893033       0.00007984      -0.00002945      -0.00002191      -5.38732708
Si       3.89991260       6.68364158      11.50218253       0.00001808      -0.00001575       0.00002212      -5.35556184
Si       4.04927502       6.59460786      13.89420244      -0.00006948       0.00002943      -0.00008712      -5.39710882
Si       3.89980341       8.88033631      14.60874251       0.00002396       0.00000069       0.00001685      -5.35505302
Si       3.87672152       8.92805924      16.96964588       0.00002123       0.00001796       0.00002072      -5.38631926
Si       3.87034945      11.16441152      17.76739852       0.00004512       0.00007106      -0.00005601      -5.38236426
Si       3.86814020      11.16514358      20.13871110       0.00004354       0.00003236       0.00004559      -5.38545487
Si       5.80286365       7.77999543      17.71160244       0.00000000       0.00000106      -0.00004003      -5.35368343
Si       5.80286365       7.80547543      20.10046621       0.00000000       0.00001827       0.00002365      -5.37045069
Si       5.80286365      10.04668241      11.45851616       0.00000000      -0.00005292       0.00002688      -5.38171104
Si       5.80286365      10.04652348      13.82867899       0.00000000       0.00002330      -0.00006742      -5.38388793
Si       5.80286365      12.29304625      14.61174579      -0.00000000       0.00001817       0.00004711      -5.38509700
Si       5.80286365      12.28639458      16.97869515      -0.00000000      -0.00000477       0.00008173      -5.38982149
Si       7.70581470       6.68364158      11.50218253      -0.00001808      -0.00001575       0.00002212      -5.35556184
Si       7.55645227       6.59460786      13.89420244       0.00006948       0.00002943      -0.00008712      -5.39710882
Si       7.70592389       8.88033631      14.60874251      -0.00002396       0.00000069       0.00001685      -5.35505302
Si       7.72900577       8.92805924      16.96964588      -0.00002123       0.00001796       0.00002072      -5.38631926
Si       7.73537785      11.16441152      17.76739852      -0.00004512       0.00007106      -0.00005601      -5.38236426
Si       7.73758710      11.16514358      20.13871110      -0.00004354       0.00003236       0.00004559      -5.38545487
Si       9.66551890       7.81365763      17.76118409       0.00005098       0.00007441      -0.00001918      -5.37744544
Si       9.67065556       7.81860672      20.13373670      -0.00000411      -0.00003486       0.00003655      -5.38256193
Si       9.66498772      10.04191333      11.45926903      -0.00000999       0.00000491       0.00010307      -5.38844988
Si       9.65273529      10.02690824      13.82846045      -0.00003897       0.00000297       0.00006172      -5.36869820
Si       9.66097393      12.28066555      14.60901663      -0.00005925      -0.00003295      -0.00002523      -5.37917802
Si       9.67021991      12.28368145      16.97893033      -0.00007984      -0.00002945      -0.00002191      -5.38732708
