360
Lattice="11.605727294873521 0.0 0.0 0.0 16.412976941613742 0.0 0.0 0.0 38.6857576495784" Properties=species:S:1:pos:R:3:move_mask:L:1:forces:R:3 energy=-1751.3727706441016 free_energy=-1751.3727706441016 pbc="F F F"
Si       5.31929168       7.52261443      18.85930685  F      -0.54363594      -0.74132896      -1.08353115
Si       5.31929168       6.15486635     -17.89216291  F      -0.85577695       0.15040920       1.05340194
Si      -4.35214774      -6.15486635     -17.89216291  F       0.85571602      -0.15060214       1.05327465
Si      -4.35214774      -7.52261443     -15.95787503  F       0.09297909       0.88814858      -0.22358584
Si      -2.41785985       7.52261443      18.85930685  F       0.39680247      -0.57126208      -0.85864994
Si      -2.41785985       6.15486635     -17.89216291  F      -0.11649897      -0.24717079       0.66131279
Si      -0.48357197      -6.15486635     -17.89216291  F       0.04822769       0.07253613       0.62795083
Si      -0.48357197      -7.52261443     -15.95787503  F      -0.02806819       0.40679543      -0.22171826
Si       1.45071591       7.52261443      18.85930685  F      -0.01221784      -0.54665866      -0.75314628
Si       1.45071591       6.15486635     -17.89216291  F      -0.04794424      -0.07281138       0.62869824
Si       3.38500379      -6.15486635     -17.89216291  F       0.11655158       0.24661802       0.66048965
Si       3.38500379      -7.52261443     -15.95787503  F      -0.08707269       0.44116712      -0.15981699
Si       5.31929168      -3.41937020      18.85930685  F      -0.77666609       0.02881529      -0.78112254
Si       5.31929168      -4.78711827     -17.89216291  F      -0.79961673       0.02928230       0.76511625
Si      -4.35214774      -0.68387404     -17.89216291  F       0.80347279       0.00568531       0.80015096
Si      -4.35214774      -2.05162212     -15.95787503  F       0.17558196       0.31436175      -0.20197399
Si      -2.41785985      -3.41937020      18.85930685  F      -0.23041293       0.30418257      -0.14904036
Si      -2.41785985      -4.78711827     -17.89216291  F      -0.22196557      -0.25846407       0.16940767
Si      -0.48357197      -0.68387404     -17.89216291  F       0.08855465       0.22434433       0.11269298
Si      -0.48357197      -2.05162212     -15.95787503  F       0.11665416      -0.01089468      -0.16553694
Si       1.45071591      -3.41937020      18.85930685  F      -0.08719136       0.22042819      -0.10410756
Si       1.45071591      -4.78711827     -17.89216291  F      -0.09125874      -0.07081236       0.07541505
Si       3.38500379      -0.68387404     -17.89216291  F       0.19727180       0.34762795       0.16150250
Si       3.38500379      -2.05162212     -15.95787503  F       0.06654584      -0.04555279      -0.12333876
Si       5.31929168       2.05162212      18.85930685  F      -0.81331608       0.01028602      -0.79971179
Si       5.31929168       0.68387404     -17.89216291  F      -0.80354685      -0.00553277       0.80053916
Si      -4.35214774       4.78711827     -17.89216291  F       0.79977160      -0.02960352       0.76622081
Si      -4.35214774       3.41937020     -15.95787503  F       0.14690260       0.30888950      -0.20071463
Si      -2.41785985       2.05162212      18.85930685  F      -0.18321500       0.32629065      -0.17196913
Si      -2.41785985       0.68387404     -17.89216291  F      -0.19720912      -0.34733282       0.16178724
Si      -0.48357197       4.78711827     -17.89216291  F       0.09129664       0.07047612       0.07578050
Si      -0.48357197       3.41937020     -15.95787503  F       0.10706976       0.02621411      -0.13805368
Si       1.45071591       2.05162212      18.85930685  F      -0.08804713       0.23397690      -0.13237472
Si       1.45071591       0.68387404     -17.89216291  F      -0.08847931      -0.22429008       0.11273230
Si       3.38500379       4.78711827     -17.89216291  F       0.22156744       0.25809167       0.16984682
Si       3.38500379       3.41937020     -15.95787503  F       0.11018198       0.02960475      -0.09883775
Si       5.31929168       7.52261443     -15.95787503  F      -0.09351502      -0.88769398      -0.22270686
Si       5.31929168       6.15486635     -14.02358715  F      -0.47864538       0.27710921       0.13720985
Si      -4.35214774      -6.15486635     -14.02358715  F       0.48011669      -0.28098047       0.13062964
Si      -4.35214774      -7.52261443     -12.08929927  F       0.11722380       0.13500429      -0.23447559
Si      -2.41785985       7.52261443     -15.95787503  F       0.08785370      -0.43848316      -0.15928699
Si      -2.41785985       6.15486635     -14.02358715  F      -0.02405930      -0.11263116       0.06864962
Si      -0.48357197      -6.15486635     -14.02358715  F       0.01714844      -0.03092354      -0.00706391
Si      -0.48357197      -7.52261443     -12.08929927  F      -0.01482684       0.15630086      -0.02624843
Si       1.45071591       7.52261443     -15.95787503  F       0.02702430      -0.40569363      -0.22163010
Si       1.45071591       6.15486635     -14.02358715  F      -0.01814228       0.02551560       0.00270719
Si       3.38500379      -6.15486635     -14.02358715  F       0.02320809       0.10376019       0.06262849
Si       3.38500379      -7.52261443     -12.08929927  F      -0.16172083      -0.05178879      -0.23946139
Si       5.31929168      -3.41937020     -15.95787503  F      -0.14694774      -0.30866266      -0.20074069
Si       5.31929168      -4.78711827     -14.02358715  F      -0.13699655       0.17882393       0.01254369
Si      -4.35214774      -0.68387404     -14.02358715  F       0.10179471      -0.20570475       0.04750746
Si      -4.35214774      -2.05162212     -12.08929927  F       0.10734804       0.06192860      -0.23485461
Si      -2.41785985      -3.41937020     -15.95787503  F      -0.11009802      -0.02916929      -0.09866918
Si      -2.41785985      -4.78711827     -14.02358715  F      -0.16326641      -0.10476505       0.04604239
Si      -0.48357197      -0.68387404     -14.02358715  F       0.06900304      -0.01354346       0.04424266
Si      -0.48357197      -2.05162212     -12.08929927  F       0.07411468      -0.02509899      -0.07215570
Si       1.45071591      -3.41937020     -15.95787503  F      -0.10726781      -0.02548724      -0.13872227
Si       1.45071591      -4.78711827     -14.02358715  F      -0.10626322      -0.07437696       0.03650366
Si       3.38500379      -0.68387404     -14.02358715  F       0.11753194       0.06652169       0.06695077
Si       3.38500379      -2.05162212     -12.08929927  F       0.15250065      -0.10141711      -0.19637723
Si       5.31929168       2.05162212     -15.95787503  F      -0.17553143      -0.31450180      -0.20294562
Si       5.31929168       0.68387404     -14.02358715  F      -0.10212735       0.20644377       0.04769871
Si      -4.35214774       4.78711827     -14.02358715  F       0.13713904      -0.18130561       0.01311628
Si      -4.35214774       3.41937020     -12.08929927  F       0.20609286       0.35412761       0.16140593
Si      -2.41785985       2.05162212     -15.95787503  F      -0.06659994       0.04543494      -0.12321806
Si      -2.41785985       0.68387404     -14.02358715  F      -0.11722779      -0.06229715       0.06574983
Si      -0.48357197       4.78711827     -14.02358715  F       0.10765551       0.07380666       0.03236409
Si      -0.48357197       3.41937020     -12.08929927  F       0.02905133      -0.41358567      -0.31044979
Si       1.45071591       2.05162212     -15.95787503  F      -0.11654372       0.01106551      -0.16520473
Si       1.45071591       0.68387404     -14.02358715  F      -0.06975509       0.01589322       0.04307029
Si       3.38500379       4.78711827     -14.02358715  F       0.16239386       0.10290285       0.04417327
Si       3.38500379       3.41937020     -12.08929927  F       0.27735258      -0.16999671      -0.24280789
Si       5.31929168       7.52261443     -12.08929927  F      -0.14472792      -0.14993998      -0.17586199
Si       4.60199865       6.71318294     -10.03511959  T      -0.04850731       0.00415603      -0.07549108
Si      -3.58108423      -6.73481811     -10.05881955  T       0.04654289      -0.01847771      -0.01664309
Si      -2.41623951      -7.97605914      -8.33283552  T      -0.00252900       0.05757245       0.02348861
Si      -2.41785985       7.52261443     -12.08929927  F       0.16065976       0.07211153      -0.23338445
Si      -2.22635772       6.22707588     -10.15776170  T       0.01036905      -0.06356970      -0.00861057
Si      -0.46671997      -5.99564084     -10.29472168  T      -0.00496646      -0.01057708       0.02541313
Si      -0.16822797      -7.10894904      -8.27280746  T      -0.01659077       0.01146684       0.01746380
Si       1.45071591       7.52261443     -12.08929927  F       0.01537500      -0.17173720       0.00099698
Si       1.43283201       6.00374827     -10.27912938  T       0.02610352      -0.01132997      -0.05041907
Si       3.17991167      -6.20844002     -10.17183470  T       0.06662616       0.01091739       0.01243715
Si       2.27139825      -7.46830333      -8.30302406  T      -0.00761530       0.04681531       0.01403721
Si       5.31929168      -3.41937020     -12.08929927  F      -0.20609253      -0.30026574       0.09438428
Si       5.13805597      -4.86821573     -10.18914236  T       0.00698903      -0.00799207       0.02453359
Si      -4.37078908      -0.69283657     -10.18950851  T       0.02031979      -0.00037902       0.00755580
Si      -4.42484929      -1.99944270      -8.24868914  T       0.04483818      -0.01111667      -0.01085182
Si      -2.41785985      -3.41937020     -12.08929927  F      -0.27639150       0.19214783      -0.27384173
Si      -2.41185009      -4.73514650     -10.15480632  T      -0.02751818      -0.00791177       0.02023463
Si      -0.49660989      -0.65353770     -10.18304871  T      -0.02154809       0.00555842      -0.02166491
Si      -0.55278719      -1.98192459      -8.24770421  T      -0.01812212      -0.03129998       0.01259829
Si       1.45071591      -3.41937020     -12.08929927  F      -0.03023814       0.47989289      -0.39901842
Si       1.43062628      -4.68783705     -10.16968601  T      -0.01684391      -0.00908742       0.04223122
Si       3.43268620      -0.68366381     -10.17526436  T      -0.00623336       0.01231726      -0.01541943
Si       3.43211819      -2.05589256      -8.25041534  T      -0.00805118       0.02086477      -0.02457471
Si       5.31929168       2.05162212     -12.08929927  F      -0.10860894      -0.07741968      -0.21826415
Si       5.33686652       0.69035233     -10.18798698  T      -0.00543745       0.01526052      -0.01138353
Si      -4.17512356       4.87732904     -10.17392723  T      -0.02630548      -0.05958123      -0.04318329
Si      -4.17872554       3.67364592      -8.17043121  T      -0.01475254      -0.01664141      -0.01779558
Si      -2.41785985       2.05162212     -12.08929927  F      -0.14456958       0.09494679      -0.20554570
Si      -2.46044736       0.67606132     -10.18159969  T      -0.00918044      -0.00600123       0.00895030
Si      -0.47134204       4.70025386     -10.16039893  T      -0.00251173      -0.01226978      -0.03249123
Si      -0.44994768       3.26531983      -8.28524191  T       0.01693694      -0.02444632       0.00236960
Si       1.45071591       2.05162212     -12.08929927  F      -0.06543663       0.02295626      -0.07134928
Si       1.47242067       0.64897575     -10.18650289  T       0.00090002       0.01948249       0.01942925
Si       3.38532927       4.74144485     -10.15151455  T      -0.00198758       0.00170662       0.01100171
Si       3.47304715       3.36526941      -8.24066918  T      -0.01193002       0.02551372      -0.01452362
Si       3.39300409       7.92514733      -8.31696482  T       0.11192157       0.05699028       0.01965065
Si       4.32175392       6.93802863      -6.33289803  T      -0.02119697       0.01189324       0.01273971
Si      -3.34193807      -6.95356097      -6.36200029  T       0.00149613      -0.01418610      -0.01456402
Si      -2.39597577      -7.96707362      -4.40195338  T      -0.02729519       0.02035930       0.02963119
Si      -1.28081178       7.45151086      -8.27883648  T      -0.10405071       0.01471900      -0.02650687
Si      -1.94006872       6.30431298      -6.30210833  T       0.01660773       0.03314314      -0.00504535
Si      -0.45364925      -5.80063019      -6.34603535  T      -0.01858974      -0.03696076      -0.05203411
Si      -0.22439718      -7.04439574      -4.38788319  T       0.05400875       0.02851388      -0.01935128
Si       1.14127351       7.12298019      -8.26358259  T       0.00218555      -0.07884897       0.01422195
Si       1.41382558       5.79647349      -6.35481192  T       0.03696592       0.01759529      -0.00595800
Si       2.90637121      -6.30634078      -6.32111417  T       0.01701089       0.00383999       0.02346069
Si       2.13319505      -7.52601457      -4.39470849  T       0.03360705       0.02843270      -0.00414282
Si       5.15173607      -3.66900506      -8.18197749  T       0.01879822      -0.00634231       0.01386107
Si       4.95869126      -5.09737678      -6.30972199  T      -0.03498982       0.00249590      -0.00634230
Si      -4.40962579      -0.66871427      -6.32196739  T       0.02865247       0.00456479      -0.01381550
Si      -4.45782526      -1.97812267      -4.38356695  T       0.04473347      -0.01412218       0.01090512
Si      -2.50455150      -3.36536577      -8.24476060  T       0.00907645       0.00561068      -0.01072086
Si      -2.51619470      -4.73223978      -6.32816803  T       0.00035002      -0.03995704      -0.00822358
Si      -0.52482225      -0.62120974      -6.31351827  T      -0.03647484       0.01274072      -0.02191314
Si      -0.59734604      -1.95664626      -4.37584622  T      -0.00955837      -0.03439056       0.01949175
Si       1.41294846      -3.26462810      -8.28835694  T       0.02429004       0.01927560       0.00903203
Si       1.43387947      -4.49636118      -6.30852589  T       0.01397406      -0.04763835       0.01521409
Si       3.47244661      -0.70116198      -6.31942986  T      -0.01664820      -0.01584297       0.01809145
Si       3.46860879      -2.04630553      -4.37402733  T      -0.04357988      -0.01344957      -0.00672001
Si       5.38982560       1.99846493      -8.25034787  T      -0.03003865       0.02248553      -0.00433748
Si       5.37434218       0.67866694      -6.31899900  T      -0.00999090      -0.00029402       0.00720268
Si      -3.98138527       5.10411829      -6.30483427  T      -0.03505692      -0.01212718      -0.02033757
Si      -4.09623267       3.81058874      -4.35395500  T       0.00024369      -0.02552887       0.01176483
Si      -2.46462514       2.05114797      -8.25791683  T       0.00036783      -0.00322309       0.00471625
Si      -2.50111318       0.70700799      -6.31905151  T      -0.00057578      -0.01411718       0.01161121
Si      -0.47176286       4.49831080      -6.30377481  T      -0.01991163      -0.00645823      -0.01375978
Si      -0.44814390       3.17789904      -4.37019555  T      -0.00329187      -0.01052021       0.00000706
Si       1.52421964       1.98063260      -8.24779763  T      -0.02977007       0.04564434      -0.01618241
Si       1.49486243       0.61830525      -6.31609152  T       0.02357603       0.01956171       0.02377512
Si       3.47310382       4.72793338      -6.31563975  T       0.03234827       0.01820724      -0.00712531
Si       3.51628650       3.36576623      -4.37520529  T      -0.02930894       0.00670773      -0.00845220
Si       3.35050212       7.93676444      -4.36738389  T      -0.05813318      -0.06751888      -0.02297903
Si       4.33453217       6.90577640      -2.43066373  T      -0.00760413       0.00022300      -0.02783273
Si      -3.37763985      -6.93201887      -2.46109781  T       0.00544421      -0.01394393      -0.01695180
Si      -2.44053705      -7.93339015      -0.49372270  T       0.07213545       0.01815572       0.00015439
Si      -1.16901008       7.52287182      -4.38442025  T      -0.05900039       0.00683375       0.00745005
Si      -1.87710764       6.34074126      -2.42991358  T      -0.01779232       0.01689775       0.02145332
Si      -0.48279193      -5.77769378      -2.44852092  T      -0.03821991       0.01230761       0.00366408
Si      -0.24562342      -7.02641784      -0.49695715  T      -0.04783116      -0.02440472       0.01781376
Si       1.16290365       7.00158088      -4.37835548  T       0.15212285       0.05144173       0.04792881
Si       1.43091812       5.74777171      -2.42292859  T       0.02762399       0.04927415      -0.01076948
Si       2.84981213      -6.33547298      -2.44214439  T       0.00033893      -0.00083255       0.03743301
Si       2.10661650      -7.52604129      -0.48689025  T       0.01811154       0.03455793      -0.03912328
Si       5.07203037      -3.79076095      -4.35888299  T      -0.00540924      -0.02835331       0.00474628
Si       4.90733505      -5.13985712      -2.43478398  T      -0.03486495      -0.01214240       0.00370347
Si      -4.43149200      -0.66642152      -2.44096732  T       0.00928676      -0.01506729       0.00893290
Si      -4.47796470      -1.97171667      -0.49474645  T       0.02933043       0.00078699      -0.01612292
Si      -2.55430246      -3.36585729      -4.39319305  T      -0.02284455      -0.02737489       0.04332855
Si      -2.54548442      -4.71270711      -2.44423647  T       0.00266225       0.00606945      -0.01752673
Si      -0.55237895      -0.60913730      -2.43641118  T      -0.00998692       0.00515121      -0.00433228
Si      -0.61695126      -1.95080043      -0.49433226  T       0.00249761      -0.04140224      -0.00063215
Si       1.41169928      -3.17703395      -4.36913529  T       0.04338667       0.00146093      -0.01907371
Si       1.41238559      -4.48864944      -2.43128092  T       0.03560601      -0.02395023      -0.01511290
Si       3.49428162      -0.70370422      -2.43286269  T      -0.00062591      -0.03168069       0.01376589
Si       3.45305719      -2.06455190      -0.49725733  T      -0.01013101       0.00361271       0.01295039
Si       5.41982593       1.98729273      -4.37658389  T      -0.01556175      -0.01421609      -0.00441992
Si       5.40090095       0.67266847      -2.43583705  T      -0.03236623      -0.00992568      -0.00738389
Si      -3.92840234       5.15086483      -2.42948164  T      -0.02486663      -0.02786595       0.01832400
Si      -4.11535247       3.79694348      -0.51338015  T       0.00332416       0.01741595       0.00051900
Si      -2.50105069       2.05598224      -4.37465890  T      -0.00527335      -0.00536895      -0.01627552
Si      -2.53137414       0.71630984      -2.43184329  T       0.01382039       0.00403320       0.00944608
Si      -0.47042579       4.47518659      -2.42511987  T      -0.00633607      -0.00089215       0.01392091
Si      -0.43567370       3.18488958      -0.47228463  T       0.00650021      -0.00387505      -0.00274521
Si       1.56075827       1.95341112      -4.36999972  T      -0.00550106       0.02183219      -0.00817731
Si       1.50005092       0.59837755      -2.43559602  T       0.01544030      -0.01204283      -0.00925167
Si       3.49163950       4.69147257      -2.41938525  T       0.03970201       0.03391434       0.00252645
Si       3.50441845       3.31419021      -0.49784850  T      -0.00909840       0.01582458       0.00057739
Si       3.40691788       7.91585559      -0.46999375  T      -0.03013475      -0.06246919       0.05358780
Si       4.46690680       6.72558365       1.35185731  T       0.00121991       0.12167936       0.00770257
Si      -3.42724554      -6.90865434       1.44004825  T       0.01393335      -0.03672953       0.01992869
Si      -2.46070618      -7.91120830       3.40148039  T      -0.05846708       0.01325303       0.00914862
Si      -1.14536927       7.53495049      -0.48479038  T      -0.01211104      -0.02667912      -0.00790620
Si      -1.93819148       6.28361513       1.39663556  T       0.04080419       0.00066702       0.01616032
Si      -0.49949435      -5.76685214       1.44706311  T      -0.02300406       0.01426831       0.00064275
Si      -0.27425680      -7.02531467       3.39439492  T       0.10468050       0.02103190       0.01359801
Si       1.20116099       7.00570043      -0.46981255  T       0.07562205       0.01435612       0.00402756
Si       1.46915753       5.82762360       1.52757795  T       0.06715506       0.03669509      -0.02405453
Si       2.84344876      -6.32159607       1.45015906  T      -0.00852054      -0.05739460       0.00722503
Si       2.09562357      -7.51293483       3.39256568  T      -0.05753151       0.01580064       0.03309182
Si       5.03854543      -3.82464418      -0.48948905  T       0.01613317      -0.00945681       0.01072162
Si       4.91047353      -5.15752603       1.45007258  T      -0.02833756       0.00735432      -0.01326328
Si      -4.43376318      -0.65794481       1.44399982  T      -0.00051878       0.00510833       0.00620541
Si      -4.47670823      -1.95777533       3.39087575  T       0.00694473       0.02647573       0.00893136
Si      -2.57796678      -3.35853161      -0.49835363  T      -0.00602081      -0.00000259      -0.01864962
Si      -2.56458230      -4.70661346       1.44481471  T       0.01970289      -0.00671274      -0.02013630
Si      -0.56144184      -0.60987958       1.44842983  T      -0.00491071       0.00332092       0.01965168
Si      -0.62521027      -1.95832781       3.38956478  T       0.00398196      -0.01359279      -0.01694827
Si       1.39213197      -3.18071970      -0.49046492  T       0.02120265       0.02033290      -0.00843230
Si       1.40391753      -4.48678494       1.45100863  T      -0.03081036      -0.00752574      -0.00951291
Si       3.48226968      -0.73525231       1.45497999  T       0.00075538       0.00621135      -0.01397061
Si       3.44052830      -2.07933859       3.39793846  T       0.00818523      -0.00897558      -0.01659454
Si       5.42860277       1.96860218      -0.48457686  T      -0.01691025      -0.01587998      -0.00078824
Si       5.39160697       0.63495530       1.44250375  T      -0.01945558      -0.01190065       0.00350130
Si      -3.99863462       5.12567868       1.42524928  T       0.00135472      -0.01347195       0.01390970
Si      -4.08987932       3.82485177       3.38841740  T      -0.01929089      -0.01802263      -0.00400309
Si      -2.49692884       2.06803358      -0.49043228  T      -0.00980437      -0.01586230       0.00594459
Si      -2.53477089       0.72558867       1.45202988  T       0.01317362      -0.00401655       0.00151560
Si      -0.42122757       4.51055965       1.46095439  T      -0.02452053       0.03078590       0.02100665
Si      -0.43968582       3.19297284       3.40263238  T       0.02568485       0.00753338      -0.01875883
Si       1.55040991       1.92541730      -0.48847404  T      -0.01094402       0.01205411       0.00323876
Si       1.49878879       0.58430895       1.45381601  T       0.00195999       0.00126448      -0.01971056
Si       3.46529685       4.62589063       1.45293420  T      -0.02248781       0.03101924       0.02033120
Si       3.52088336       3.27772600       3.39163548  T       0.01848309       0.00876276      -0.01250450
Si       4.71881411       7.82136201       3.37758913  T      -0.25215439      -0.12873176       0.04006524
Si       4.51260738       6.70756511       5.40915103  T      -0.00231088       0.10799382      -0.04103139
Si      -3.43998466      -6.89039775       5.35769545  T       0.01942383      -0.03860478      -0.03598822
Si      -2.54007132      -7.86795823       7.35337824  T       0.05698443       0.05846929      -0.00834104
Si      -1.19085760       7.31249163       3.39522424  T      -0.00081135       0.01270784       0.00989309
Si      -1.93947471       6.28544045       5.39469626  T       0.01835319      -0.00392836       0.00103119
Si      -0.51944868      -5.77027919       5.34722677  T      -0.03306389      -0.00334609       0.01082087
Si      -0.29580075      -7.04290109       7.29424037  T      -0.04386140      -0.01048991       0.00460125
Si       1.14849287       7.22396079       3.40335242  T       0.08307115       0.02385712      -0.00924001
Si       1.49071784       5.85294019       5.29708478  T       0.03290985       0.01109033       0.02772474
Si       2.81809839      -6.34686918       5.36474695  T       0.01496731      -0.04488980      -0.03514299
Si       2.08120482      -7.52945594       7.31764432  T       0.01405742       0.06798209       0.00699084
Si       5.02059441      -3.84479518       3.39947946  T       0.01769438       0.00202862       0.01327838
Si       4.87532290      -5.15729816       5.34833569  T      -0.00889593       0.02131339      -0.01791698
Si      -4.42620165      -0.63748300       5.32889305  T       0.00441931       0.00100506      -0.01234314
Si      -4.47398075      -1.94481138       7.26967980  T       0.00914161       0.00663091      -0.00111745
Si      -2.58859712      -3.35529538       3.38506183  T       0.00370848       0.00457182       0.02105503
Si      -2.57685750      -4.68693217       5.34015435  T       0.03019122      -0.01815154      -0.00954312
Si      -0.55619906      -0.61196015       5.32707129  T       0.01333459       0.01731898      -0.01133954
Si      -0.59741727      -1.94545504       7.26878312  T       0.01063300      -0.04538603       0.00941453
Si       1.38063427      -3.19025181       3.39572172  T       0.02010020       0.01955441       0.00755539
Si       1.39353218      -4.50050002       5.33809877  T      -0.02342450      -0.01876983      -0.00046448
Si       3.46317599      -0.73731489       5.33927366  T       0.00198037      -0.00118403       0.01325231
Si       3.42483588      -2.07363540       7.28619710  T       0.00286798      -0.03098158       0.00070869
Si       5.43365570       1.92632095       3.39360055  T      -0.00310588      -0.02302370       0.02121450
Si       5.38105564       0.61634852       5.33841965  T      -0.00572974       0.01203787      -0.02306089
Si      -3.99578825       5.11094932       5.35799187  T       0.01185262      -0.02440904      -0.00517211
Si      -4.15653955       3.72749907       7.25993967  T       0.03940691       0.04940690      -0.01665155
Si      -2.49437711       2.07351507       3.39570794  T      -0.02846984      -0.01497747      -0.00197837
Si      -2.51570015       0.73147509       5.34117629  T      -0.01283478      -0.00565459      -0.01146171
Si      -0.40699687       4.53047627       5.33510021  T       0.00654075       0.03474949       0.00269811
Si      -0.41287203       3.23371252       7.29135713  T      -0.00263063       0.01880893       0.00618795
Si       1.54884707       1.92983504       3.38842656  T      -0.03354358      -0.00159863       0.02793720
Si       1.48983726       0.59035352       5.32830397  T       0.00591583      -0.00212654      -0.01667062
Si       3.47613001       4.62365309       5.32922348  T      -0.01827848       0.02924109      -0.01464934
Si       3.48780846       3.28433928       7.26573724  T       0.03028995       0.03778168      -0.00345195
Si       3.55116281       7.81569289       7.32352653  T       0.00593461      -0.08196127       0.02758498
Si       4.76806183       6.62934007       9.04810741  T      -0.02793211       0.04672998      -0.05804326
Si      -3.75103123      -6.68536073       9.06529090  T       0.00165188      -0.00453174       0.05880166
Si      -3.10440944      -7.32433701      11.26006666  T      -0.01490180       0.04697843      -0.02545259
Si      -1.16257462       7.49592715       7.30630740  T       0.02110976      -0.06039019       0.03697305
Si      -2.00877060       6.26494282       9.20116020  T       0.06406437       0.03439989       0.00412527
Si      -0.55326006      -5.85625977       9.27759622  T      -0.02374039      -0.03282725       0.02521493
Si      -0.68983887      -7.36034302      11.08689733  T       0.04255334       0.02082545      -0.02943516
Si       1.25575650       7.06553268       7.28791813  T       0.02606243      -0.01504383      -0.02409301
Si       1.50691814       5.87711759       9.27407290  T       0.05191441       0.01364155      -0.00021823
Si       2.92299249      -6.28692530       9.20726413  T      -0.00736797      -0.02414275       0.00633155
Si       2.20527858      -7.22654719      11.25627897  T       0.02364851       0.02919267      -0.02723794
Si       5.07211116      -3.77886347       7.24829584  T      -0.04310005      -0.04232646       0.00162666
Si       4.97427597      -5.07747424       9.20306976  T      -0.04031464       0.01236592      -0.00054563
Si      -4.38977024      -0.65697748       9.22251791  T       0.02460699       0.01446368       0.00238310
Si      -4.40949518      -2.00457663      11.13708857  T       0.00330610      -0.00395528       0.00191051
Si      -2.56680065      -3.30846005       7.26076593  T       0.00008336      -0.03099969       0.00848022
Si      -2.55439958      -4.68157550       9.17795864  T       0.00373211      -0.01667482       0.01143529
Si      -0.52407407      -0.63360880       9.22279104  T      -0.01612325      -0.00191011      -0.00457767
Si      -0.55021938      -2.02155293      11.13670182  T      -0.00566807       0.01562214      -0.00004453
Si       1.37577453      -3.22198397       7.29424733  T       0.00259085       0.01304136       0.04458631
Si       1.36669903      -4.56951572       9.23329540  T       0.01705169      -0.02301015      -0.00651910
Si       3.43764827      -0.71594957       9.22241330  T       0.00479950       0.00909030      -0.01870560
Si       3.39726624      -2.06787441      11.15077741  T       0.01176576      -0.01796392      -0.00945374
Si       5.41272288       1.94448875       7.26627535  T      -0.01398634      -0.02356780       0.01072917
Si       5.34335752       0.65819259       9.22304626  T      -0.00384490       0.00511981      -0.00238966
Si      -4.04708651       5.04756047       9.19636546  T       0.01194658      -0.01286651       0.00246640
Si      -4.23125972       3.59538138      11.04634697  T      -0.00336795      -0.01575512       0.02005070
Si      -2.46291063       2.07393480       7.28417986  T      -0.00459125       0.01562925       0.00094936
Si      -2.47705306       0.71346445       9.21961391  T      -0.01170346      -0.01531606      -0.01250848
Si      -0.41069955       4.58278794       9.23460111  T      -0.03681140       0.02885258      -0.00574086
Si      -0.44059508       3.31726472      11.19814783  T       0.00484229      -0.00763175      -0.00757885
Si       1.53492876       1.92770646       7.26868446  T      -0.03352062       0.00539538       0.01103788
Si       1.47948321       0.62138508       9.22389177  T      -0.00394993       0.00613834       0.00117021
Si       3.49778707       4.67804488       9.16741377  T      -0.01765003       0.01946347      -0.00681802
Si       3.45876813       3.38388094      11.15039575  T      -0.00349791      -0.01057828      -0.00236432
Si       4.11891897       7.28798009      11.22152814  T       0.03399246      -0.02032106       0.05845322
Si       5.31929168       6.15486635      13.05644321  F      -0.70041907       0.31727487      -0.13479421
Si      -4.35214774      -6.15486635      13.05644321  F       0.73291534      -0.35753283      -0.13310195
Si      -4.35214774      -7.52261443      14.99073109  F       0.20574733       0.69516343       0.13844565
Si      -1.30392444       7.23053398      11.24015791  T       0.00822799      -0.03045479      -0.01857308
Si      -2.41785985       6.15486635      13.05644321  F       0.13946887       0.01325429       0.33068593
Si      -0.48357197      -6.15486635      13.05644321  F       0.05879326       0.30969587       0.41167314
Si      -0.48357197      -7.52261443      14.99073109  F      -0.04817004       0.07130248       0.06060239
Si       1.73307733       7.36370945      11.09062589  T      -0.05625530      -0.01768727      -0.02869649
Si       1.45071591       6.15486635      13.05644321  F      -0.05228626      -0.26972423       0.36925926
Si       3.38500379      -6.15486635      13.05644321  F      -0.21401182      -0.07077739       0.34320725
Si       3.38500379      -7.52261443      14.99073109  F      -0.19955494       0.22860086       0.03773581
Si       5.17674300      -3.60700003      11.03955241  T       0.02246775      -0.00512610       0.01915673
Si       5.31929168      -4.78711827      13.05644321  F      -0.21116376      -0.07345109      -0.05802619
Si      -4.35214774      -0.68387404      13.05644321  F       0.10584848      -0.00297404       0.27202240
Si      -4.35214774      -2.05162212      14.99073109  F       0.09272835       0.19015876      -0.05069624
Si      -2.50462713      -3.37803233      11.15658482  T      -0.01459267      -0.03112329      -0.01755565
Si      -2.41785985      -4.78711827      13.05644321  F      -0.28980406      -0.09192058       0.18759208
Si      -0.48357197      -0.68387404      13.05644321  F       0.01888666       0.15568339       0.13484864
Si      -0.48357197      -2.05162212      14.99073109  F       0.07039978      -0.01183640      -0.04559792
Si       1.40001863      -3.31240690      11.20077865  T       0.00373636      -0.02339642      -0.00105614
Si       1.45071591      -4.78711827      13.05644321  F       0.00051671      -0.07197737       0.01849887
Si       3.38500379      -0.68387404      13.05644321  F       0.22048728       0.08004653       0.16548208
Si       3.38500379      -2.05162212      14.99073109  F       0.11240833      -0.04634576      -0.04760963
Si       5.36112563       2.00590273      11.13672971  T       0.00008705       0.00253652      -0.00078121
Si       5.31929168       0.68387404      13.05644321  F      -0.11204918       0.01014279       0.26100600
Si      -4.35214774       4.78711827      13.05644321  F       0.19853797       0.07534075      -0.03332605
Si      -4.35214774       3.41937020      14.99073109  F       0.10616024       0.12304817      -0.05639728
Si      -2.43847844       2.06830534      11.14794420  T      -0.01115628       0.01789049       0.00306218
Si      -2.41785985       0.68387404      13.05644321  F      -0.22301839      -0.07401216       0.14804479
Si      -0.48357197       4.78711827      13.05644321  F      -0.00620551       0.08987108       0.01499589
Si      -0.48357197       3.41937020      14.99073109  F       0.10385717      -0.07106521       0.02006369
Si       1.50657407       2.01505861      11.13528814  T       0.01443674       0.03694346      -0.01878072
Si       1.45071591       0.68387404      13.05644321  F      -0.02778964      -0.16930477       0.14553660
Si       3.38500379       4.78711827      13.05644321  F       0.26775026       0.09363856       0.18787493
Si       3.38500379       3.41937020      14.99073109  F       0.13723341      -0.12701886      -0.00974111
Si       5.31929168       7.52261443      14.99073109  F      -0.20714681      -0.67854557       0.13308356
Si       5.31929168       6.15486635      16.92501897  F      -0.36980007       0.70457224       0.22454298
Si      -4.35214774      -6.15486635      16.92501897  F       0.36858939      -0.70706385       0.22996686
Si      -4.35214774      -7.52261443      18.85930685  F       0.54363023       0.74106540      -1.08281040
Si      -2.41785985       7.52261443      14.99073109  F       0.20126890      -0.21623522       0.04574104
Si      -2.41785985       6.15486635      16.92501897  F      -0.03238328       0.24388459       0.18265893
Si      -0.48357197      -6.15486635      16.92501897  F       0.06332325      -0.28442599       0.09767462
Si      -0.48357197      -7.52261443      18.85930685  F       0.01313478       0.54630643      -0.75288963
Si       1.45071591       7.52261443      14.99073109  F       0.05173071      -0.07214554       0.06729185
Si       1.45071591       6.15486635      16.92501897  F      -0.06603949       0.28435489       0.09967997
Si       3.38500379      -6.15486635      16.92501897  F       0.03265180      -0.24542272       0.18494515
Si       3.38500379      -7.52261443      18.85930685  F      -0.39682467       0.57166150      -0.85943584
Si       5.31929168      -3.41937020      14.99073109  F      -0.10858285      -0.11788529      -0.05341229
Si       5.31929168      -4.78711827      16.92501897  F      -0.21490007       0.27940471       0.22612610
Si      -4.35214774      -0.68387404      16.92501897  F       0.17194510      -0.33888150       0.19884556
Si      -4.35214774      -2.05162212      18.85930685  F       0.81330102      -0.01036322      -0.79970760
Si      -2.41785985      -3.41937020      14.99073109  F      -0.13435505       0.12165943      -0.00598778
Si      -2.41785985      -4.78711827      16.92501897  F      -0.11846166      -0.06645177       0.17157457
Si      -0.48357197      -0.68387404      16.92501897  F       0.11347472      -0.05209662       0.13883940
Si      -0.48357197      -2.05162212      18.85930685  F       0.08785705      -0.23394844      -0.13235898
Si       1.45071591      -3.41937020      14.99073109  F      -0.09699953       0.07442912       0.02404998
Si       1.45071591      -4.78711827      16.92501897  F      -0.12769123       0.01490742       0.23302765
Si       3.38500379      -0.68387404      16.92501897  F       0.08137035      -0.01147465       0.09777626
Si       3.38500379      -2.05162212      18.85930685  F       0.18322731      -0.32626972      -0.17185448
Si       5.31929168       2.05162212      14.99073109  F      -0.09393842      -0.19177932      -0.04694040
Si       5.31929168       0.68387404      16.92501897  F      -0.17183072       0.33918410       0.19842242
Si      -4.35214774       4.78711827      16.92501897  F       0.21478716      -0.28037687       0.22511243
Si      -4.35214774       3.41937020      18.85930685  F       0.77684042      -0.02904642      -0.78083204
Si      -2.41785985       2.05162212      14.99073109  F      -0.11314558       0.04825015      -0.04706219
Si      -2.41785985       0.68387404      16.92501897  F      -0.08087591       0.01144025       0.09781919
Si      -0.48357197       4.78711827      16.92501897  F       0.12760637      -0.01576148       0.23121808
Si      -0.48357197       3.41937020      18.85930685  F       0.08717639      -0.22082798      -0.10404932
Si       1.45071591       2.05162212      14.99073109  F      -0.07122901       0.01392503      -0.04594351
Si       1.45071591       0.68387404      16.92501897  F      -0.11335779       0.05199583       0.13824537
Si       3.38500379       4.78711827      16.92501897  F       0.11890408       0.06694297       0.17218250
Si       3.38500379       3.41937020      18.85930685  F       0.23025068      -0.30439849      -0.14873112
