360
Lattice="11.605727294873521 0.0 0.0 0.0 16.412976941613742 0.0 0.0 0.0 38.6857576495784" Properties=species:S:1:pos:R:3:move_mask:L:1:forces:R:3 energy=-1736.87125805378 free_energy=-1736.87125805378 pbc="F F F"
Si       5.31929168       7.52261443      20.40673716  F      -0.53594223      -0.75108013      -1.10433930
Si       5.31929168       6.15486635     -19.43959322  F      -0.85620754       0.16008607       1.05497317
Si      -4.35214774      -6.15486635     -19.43959322  F       0.85620755      -0.16008605       1.05497324
Si      -4.35214774      -7.52261443     -17.50530534  F       0.06778214       0.93871419      -0.22914697
Si      -2.41785985       7.52261443      20.40673716  F       0.39589658      -0.57865885      -0.84656442
Si      -2.41785985       6.15486635     -19.43959322  F      -0.11471433      -0.24474146       0.66399211
Si      -0.48357197      -6.15486635     -19.43959322  F       0.05580276       0.07709104       0.63824492
Si      -0.48357197      -7.52261443     -17.50530534  F      -0.00248337       0.37237672      -0.26049271
Si       1.45071591       7.52261443      20.40673716  F      -0.02105658      -0.55516695      -0.75775186
Si       1.45071591       6.15486635     -19.43959322  F      -0.05580277      -0.07709106       0.63824488
Si       3.38500379      -6.15486635     -19.43959322  F       0.11471431       0.24474144       0.66399209
Si       3.38500379      -7.52261443     -17.50530534  F      -0.10894574       0.42751916      -0.18247243
Si       5.31929168      -3.41937020      20.40673716  F      -0.77402999       0.02621952      -0.78821955
Si       5.31929168      -4.78711827     -19.43959322  F      -0.79905561       0.02953617       0.76972959
Si      -4.35214774      -0.68387404     -19.43959322  F       0.80388529       0.00582162       0.79968509
Si      -4.35214774      -2.05162212     -17.50530534  F       0.17390139       0.31498085      -0.19471174
Si      -2.41785985      -3.41937020      20.40673716  F      -0.22979278       0.29414780      -0.16142584
Si      -2.41785985      -4.78711827     -19.43959322  F      -0.23177062      -0.26360894       0.16114813
Si      -0.48357197      -0.68387404     -19.43959322  F       0.08791078       0.22335854       0.11382866
Si      -0.48357197      -2.05162212     -17.50530534  F       0.11707435       0.00011125      -0.16705011
Si       1.45071591      -3.41937020      20.40673716  F      -0.09033282       0.21773369      -0.10139682
Si       1.45071591      -4.78711827     -19.43959322  F      -0.08670065      -0.07446141       0.06932175
Si       3.38500379      -0.68387404     -19.43959322  F       0.19609405       0.34436062       0.16076164
Si       3.38500379      -2.05162212     -17.50530534  F       0.06626869      -0.04479454      -0.12909524
Si       5.31929168       2.05162212      20.40673716  F      -0.81493233       0.00940616      -0.80270957
Si       5.31929168       0.68387404     -19.43959322  F      -0.80388528      -0.00582153       0.79968502
Si      -4.35214774       4.78711827     -19.43959322  F       0.79905560      -0.02953612       0.76972952
Si      -4.35214774       3.41937020     -17.50530534  F       0.15408029       0.29899820      -0.19972337
Si      -2.41785985       2.05162212      20.40673716  F      -0.18471435       0.32573774      -0.17432237
Si      -2.41785985       0.68387404     -19.43959322  F      -0.19609412      -0.34436077       0.16076173
Si      -0.48357197       4.78711827     -19.43959322  F       0.08670060       0.07446142       0.06932168
Si      -0.48357197       3.41937020     -17.50530534  F       0.11517539       0.01729057      -0.14637518
Si       1.45071591       2.05162212      20.40673716  F      -0.08805712       0.23289070      -0.13897590
Si       1.45071591       0.68387404     -19.43959322  F      -0.08791082      -0.22335853       0.11382869
Si       3.38500379       4.78711827     -19.43959322  F       0.23177065       0.26360883       0.16114818
Si       3.38500379       3.41937020     -17.50530534  F       0.11044834       0.02346784      -0.12342210
Si       5.31929168       7.52261443     -17.50530534  F      -0.06778205      -0.93871431      -0.22914699
Si       5.31929168       6.15486635     -15.57101745  F      -0.47656345       0.43960021       0.10863831
Si      -4.35214774      -6.15486635     -15.57101745  F       0.47656354      -0.43959979       0.10863847
Si      -4.35214774      -7.52261443     -13.63672957  F      -0.19706944       0.26899032      -0.64496596
Si      -2.41785985       7.52261443     -17.50530534  F       0.10894571      -0.42751911      -0.18247265
Si      -2.41785985       6.15486635     -15.57101745  F      -0.03725398      -0.12268663       0.09271281
Si      -0.48357197      -6.15486635     -15.57101745  F      -0.17311625      -0.02824272      -0.06373873
Si      -0.48357197      -7.52261443     -13.63672957  F      -0.03409546       0.29971818       0.50334635
Si       1.45071591       7.52261443     -17.50530534  F       0.00248330      -0.37237669      -0.26049277
Si       1.45071591       6.15486635     -15.57101745  F       0.17311602       0.02824283      -0.06373815
Si       3.38500379      -6.15486635     -15.57101745  F       0.03725399       0.12268680       0.09271293
Si       3.38500379      -7.52261443     -13.63672957  F      -0.16265880       0.02243357      -0.08324509
Si       5.31929168      -3.41937020     -17.50530534  F      -0.15408013      -0.29899847      -0.19972354
Si       5.31929168      -4.78711827     -15.57101745  F      -0.13304785       0.15862974       0.06189614
Si      -4.35214774      -0.68387404     -15.57101745  F       0.11779180      -0.19015501       0.05356236
Si      -4.35214774      -2.05162212     -13.63672957  F       0.08599420      -0.15782676      -0.32767946
Si      -2.41785985      -3.41937020     -17.50530534  F      -0.11044832      -0.02346743      -0.12342182
Si      -2.41785985      -4.78711827     -15.57101745  F      -0.19130998      -0.14699343       0.19114350
Si      -0.48357197      -0.68387404     -15.57101745  F       0.08896783      -0.01546031       0.04767387
Si      -0.48357197      -2.05162212     -13.63672957  F       0.06306268      -0.05922276      -0.12597401
Si       1.45071591      -3.41937020     -17.50530534  F      -0.11517548      -0.01729080      -0.14637523
Si       1.45071591      -4.78711827     -15.57101745  F      -0.04801283      -0.12226238       0.10471934
Si       3.38500379      -0.68387404     -15.57101745  F       0.14280810       0.05969821       0.05999517
Si       3.38500379      -2.05162212     -13.63672957  F       0.18560945       0.05847756      -0.21207035
Si       5.31929168       2.05162212     -17.50530534  F      -0.17390107      -0.31498154      -0.19471156
Si       5.31929168       0.68387404     -15.57101745  F      -0.11779195       0.19015737       0.05356133
Si      -4.35214774       4.78711827     -15.57101745  F       0.13304797      -0.15862902       0.06189615
Si      -4.35214774       3.41937020     -13.63672957  F       0.10741859       0.14889875       0.11672854
Si      -2.41785985       2.05162212     -17.50530534  F      -0.06626873       0.04479512      -0.12909530
Si      -2.41785985       0.68387404     -15.57101745  F      -0.14280829      -0.05970016       0.05999607
Si      -0.48357197       4.78711827     -15.57101745  F       0.04801286       0.12226265       0.10471976
Si      -0.48357197       3.41937020     -13.63672957  F      -0.15524481      -0.48559856      -0.41999493
Si       1.45071591       2.05162212     -17.50530534  F      -0.11707448      -0.00011125      -0.16705025
Si       1.45071591       0.68387404     -15.57101745  F      -0.08896745       0.01546037       0.04767450
Si       3.38500379       4.78711827     -15.57101745  F       0.19131028       0.14699214       0.19114362
Si       3.38500379       3.41937020     -13.63672957  F       0.00150175       0.03700721      -0.23748378
Si       5.31929168       7.52261443     -13.63672957  F       0.19706528      -0.26899232      -0.64496398
Si       3.48465863       7.14757246     -12.29271670  T      -0.03192003      -0.00796038       0.00031684
Si      -2.51751565      -7.14757298     -12.29271643  T       0.03193435       0.00798141       0.00032033
Si      -1.95167150      -7.96105431      -9.99911167  T      -0.01656133       0.00132278       0.03288500
Si      -2.41785985       7.52261443     -13.63672957  F       0.16265935      -0.02243159      -0.08324893
Si      -2.49964670       6.21658011     -11.68100610  T      -0.03368046      -0.01200114      -0.01051961
Si      -0.01368434      -5.97227691     -11.90803357  T      -0.00718948      -0.01748563       0.00782704
Si       0.23886392      -7.09028233      -9.88431907  T       0.02764266       0.01304031      -0.00449188
Si       1.45071591       7.52261443     -13.63672957  F       0.03409434      -0.29971025       0.50333716
Si       0.98083003       5.97227861     -11.90803366  T       0.00714782       0.01747010       0.00783148
Si       3.46679151      -6.21658004     -11.68100533  T       0.03366134       0.01200182      -0.01052641
Si       2.59325619      -7.54624020      -9.83242914  T      -0.00826276      -0.01133933       0.00607686
Si       5.31929168      -3.41937020     -13.63672957  F      -0.10741881      -0.14890195       0.11672842
Si       5.31907845      -4.74976775     -11.64414364  T      -0.00670978      -0.00055537      -0.02307866
Si      -4.34719663      -0.81030319     -11.69033064  T      -0.01167486      -0.00112563       0.02718022
Si      -4.27210604      -2.25614683      -9.85085285  T       0.02404157       0.00325259       0.00083953
Si      -2.41785985      -3.41937020     -13.63672957  F      -0.00150498      -0.03699845      -0.23748693
Si      -2.07824779      -4.86366495     -11.81078830  T      -0.03005808       0.01466675       0.01871394
Si      -0.48466730      -0.67145427     -11.73442884  T       0.00823750      -0.00931590      -0.00285422
Si      -0.44057744      -2.05414569      -9.82860490  T      -0.03197325       0.02716778       0.03249269
Si       1.45071591      -3.41937020     -13.63672957  F       0.15524349       0.48560241      -0.41999812
Si       1.79759635      -4.59808033     -11.69628387  T       0.00925209       0.00840838       0.03142154
Si       3.45213466      -0.60481932     -11.75552937  T      -0.04979892       0.02132931       0.02078246
Si       3.56786149      -1.87157827      -9.77893046  T      -0.01050879       0.01791474       0.02588363
Si       5.31929168       2.05162212     -13.63672957  F      -0.08599381       0.15781462      -0.32767294
Si       5.31433744       0.81029958     -11.69033162  T       0.01174289       0.00122877       0.02721441
Si      -4.35193489       4.74976691     -11.64414330  T       0.00671941       0.00057388      -0.02308871
Si      -4.28237796       3.50422963      -9.65305884  T       0.00387189       0.02236655       0.01246631
Si      -2.41785985       2.05162212     -13.63672957  F      -0.18560592      -0.05846404      -0.21207749
Si      -2.48498648       0.60482412     -11.75552830  T       0.04971475      -0.02141567       0.02075771
Si      -0.83045351       4.59808064     -11.69628327  T      -0.00922084      -0.00840516       0.03141230
Si      -0.66366250       3.17762541      -9.82624488  T       0.01064677       0.05374433       0.03188206
Si       1.45071591       2.05162212     -13.63672957  F      -0.06306357       0.05922450      -0.12597302
Si       1.45181081       0.67145517     -11.73442834  T      -0.00822667       0.00930919      -0.00285549
Si       3.04539050       4.86366785     -11.81078941  T       0.03007902      -0.01472137       0.01873290
Si       3.26197065       3.54727534      -9.85202689  T       0.00527820       0.00274671       0.00621813
Si       2.91881511       7.96105324      -9.99911078  T       0.01657110      -0.00131997       0.03288266
Si       3.93290522       7.03935253      -7.98650946  T      -0.02948623       0.01075287       0.00800294
Si      -2.96576282      -7.03935475      -7.98651090  T       0.02951527      -0.01069370       0.00800700
Si      -2.06235153      -7.89578065      -5.90065261  T      -0.02642763       0.01854462      -0.02390859
Si      -1.62611238       7.54624066      -9.83242940  T       0.00826787       0.01133797       0.00607570
Si      -2.11088059       6.55873988      -7.71995479  T       0.01725108       0.00302080      -0.00287699
Si       0.15171351      -5.77097617      -7.94510913  T       0.00535198       0.00583906      -0.00750530
Si       0.06525411      -6.95868741      -5.93996180  T       0.04482797      -0.00686918      -0.02344686
Si       0.72828067       7.09028264      -9.88431898  T      -0.02765532      -0.01304649      -0.00448160
Si       0.81543282       5.77097465      -7.94510891  T      -0.00540382      -0.00581225      -0.00750428
Si       3.07802493      -6.55873830      -7.71995499  T      -0.01725428      -0.00302855      -0.00287771
Si       2.30403260      -7.63682229      -5.69953237  T      -0.01290442       0.00216845       0.02660244
Si       5.24952082      -3.50422645      -9.65305928  T      -0.00383743      -0.02241579       0.01246356
Si       4.40406261      -4.59280193      -7.69347607  T      -0.00458445       0.01372509      -0.01500154
Si      -4.35033732      -0.99525646      -7.89182761  T       0.01931979      -0.03568050       0.01329328
Si      -4.26182400      -2.43678853      -6.05231513  T      -0.00781833       0.02068981      -0.00545349
Si      -2.29482265      -3.54727990      -9.85202578  T      -0.00537635      -0.00264138       0.00618454
Si      -2.01570336      -4.89387045      -7.93666368  T       0.00801822      -0.03098078       0.00203398
Si      -0.49382941      -0.67343266      -7.91085190  T       0.02964494       0.04134117      -0.01926317
Si      -0.43183193      -1.98772913      -5.97791277  T      -0.02321655      -0.04674139       0.03034244
Si       1.63080800      -3.17762445      -9.82624533  T      -0.01067868      -0.05375306       0.03187872
Si       2.00296543      -4.32294642      -7.81257737  T       0.00557783      -0.01395581      -0.04654133
Si       3.51950259      -0.51388273      -7.82544332  T      -0.01589398      -0.02878457       0.02217456
Si       3.59170913      -1.67936034      -5.73230988  T      -0.03234372       0.04309626       0.00531333
Si       5.23924625       2.25615402      -9.85085157  T      -0.02396384      -0.00337910       0.00082888
Si       5.31747777       0.99525121      -7.89182702  T      -0.01925620       0.03581362       0.01329988
Si      -3.43691763       4.59280194      -7.69347583  T       0.00458777      -0.01371249      -0.01500153
Si      -4.01416646       3.58477765      -5.60993166  T      -0.01083772      -0.00611366       0.01909995
Si      -2.60071682       1.87157398      -9.77893095  T       0.01049484      -0.01781509       0.02590124
Si      -2.55235477       0.51388672      -7.82544402  T       0.01581332       0.02870164       0.02218192
Si      -1.03582165       4.32294612      -7.81257631  T      -0.00557116       0.01396381      -0.04655191
Si      -0.68968970       3.00099609      -5.91446370  T      -0.03284296       0.00668881       0.05310450
Si       1.40772004       2.05414575      -9.82860420  T       0.03199380      -0.02716575       0.03248938
Si       1.46097334       0.67343347      -7.91085143  T      -0.02963642      -0.04134503      -0.01926477
Si       2.98284523       4.89387814      -7.93666225  T      -0.00798473       0.03083228       0.00202090
Si       3.18208858       3.54862089      -5.99881563  T      -0.00914017       0.01961761      -0.00318437
Si       3.02949444       7.89578042      -5.90065186  T       0.02644266      -0.01853855      -0.02390494
Si       3.25947805       6.92875670      -3.55098034  T      -0.02686190       0.02163254       0.01435456
Si      -2.29233706      -6.92875705      -3.55098177  T       0.02686172      -0.02162228       0.01435277
Si      -2.60802229      -6.14928156      -1.01707332  T      -0.02928292       0.01140040      -0.00495849
Si      -1.33688892       7.63682498      -5.69953260  T       0.01291189      -0.00217237       0.02660271
Si      -1.63157084       6.47273008      -3.51912232  T       0.00223901       0.04772116       0.00395558
Si      -0.02380899      -6.03047322      -3.78440982  T       0.02556894       0.03304637      -0.00532945
Si      -0.45650745      -5.42257739      -0.46294320  T      -0.00714590       0.01885309       0.05409304
Si       0.90189039       6.95868862      -5.93996160  T      -0.04485113       0.00686162      -0.02346242
Si       0.99095007       6.03047388      -3.78441127  T      -0.02557149      -0.03304976      -0.00532132
Si       2.59871767      -6.47272876      -3.51912315  T      -0.00224416      -0.04772905       0.00395528
Si       1.79907988      -5.70789612      -1.05801895  T      -0.00013943      -0.03838403       0.02914508
Si       4.98130909      -3.58477575      -5.60993136  T       0.01085361       0.00609401       0.01909214
Si       4.08418688      -4.55576579      -3.59504423  T      -0.01398895       0.05164401       0.00705784
Si      -4.16980043      -1.48926624      -3.92863934  T      -0.01579019       0.00579144      -0.02211447
Si      -3.89550752      -3.35610694      -2.47992893  T      -0.01279816       0.00616375      -0.02442089
Si      -2.21494043      -3.54862217      -5.99881938  T       0.00905331      -0.01955095      -0.00314218
Si      -2.24248253      -4.59870461      -3.85338829  T      -0.00380548       0.03096321      -0.03264005
Si      -0.40165198      -0.76325255      -3.96950243  T      -0.01101679      -0.02871217      -0.04199193
Si       0.05738246      -1.95759827      -1.95642936  T      -0.01613370       0.03196773       0.03124252
Si       1.65683471      -3.00099601      -5.91446285  T       0.03282482      -0.00669426       0.05309112
Si       1.67714249      -4.27521328      -3.93598487  T       0.00866773       0.03152710      -0.06801111
Si       3.49930047      -0.20272786      -3.80159327  T      -0.00398577      -0.05034857      -0.00599529
Si       3.44682909      -1.12918461      -1.62572814  T      -0.00887665       0.02572413       0.03748743
Si       5.22896355       2.43679336      -6.05231207  T       0.00789715      -0.02077317      -0.00550637
Si       5.13694451       1.48926652      -3.92864002  T       0.01579362      -0.00578463      -0.02210314
Si      -3.11704290       4.55576631      -3.59504246  T       0.01398944      -0.05163521       0.00704733
Si      -3.20176134       3.32264637      -1.31774178  T      -0.02918270      -0.02422673      -0.00512172
Si      -2.62456572       1.67935882      -5.73231071  T       0.03234518      -0.04305649       0.00532407
Si      -2.53215558       0.20272875      -3.80159255  T       0.00397550       0.05033736      -0.00599947
Si      -0.71000040       4.27521156      -3.93598401  T      -0.00866375      -0.03152158      -0.06802901
Si      -0.91456693       3.42942334      -1.77410781  T      -0.01174676       0.02151656      -0.01815843
Si       1.39897646       1.98773084      -5.97791305  T       0.02322371       0.04673263       0.03034630
Si       1.36879482       0.76325062      -3.96950437  T       0.01102178       0.02871881      -0.04198330
Si       3.20962601       4.59870584      -3.85338733  T       0.00381014      -0.03097492      -0.03263762
Si       2.47083689       3.71456118      -1.73873753  T       0.04127925      -0.01689621      -0.02605220
Si       3.57516671       6.14928124      -1.01707257  T       0.02928133      -0.01139892      -0.00495928
Si       4.19494668       5.95019471       1.34691019  T       0.02784541      -0.01716275      -0.01564129
Si      -3.22780112      -5.95019365       1.34690983  T      -0.02784363       0.01716158      -0.01564018
Si      -2.20411209      -6.62682785       3.39821184  T       0.02173429      -0.03359802       0.03563032
Si      -0.83193672       5.70789865      -1.05801794  T       0.00013879       0.03834668       0.02913015
Si      -1.28961561       5.29436116       1.32846996  T       0.01197470       0.00154461       0.04006618
Si      -0.20555488      -4.28544766       1.60418522  T       0.04761464      -0.01476328       0.01437444
Si      -0.17042736      -5.50277132       3.64581208  T      -0.02407649      -0.01594552      -0.00928616
Si       1.42365135       5.42257637      -0.46294532  T       0.00714474      -0.01885197       0.05409293
Si       1.17269664       4.28544721       1.60418278  T      -0.04761554       0.01476114       0.01437634
Si       2.25676176      -5.29435911       1.32846905  T      -0.01197883      -0.00154541       0.04006654
Si       2.02946880      -6.31308386       3.49323685  T      -0.00188147      -0.01982482       0.03490543
Si       4.16890401      -3.32264471      -1.31774183  T       0.02916876       0.02421089      -0.00512758
Si       3.39061487      -3.27121348       1.05997625  T      -0.01558221       0.00183162       0.00174377
Si      -3.07233144      -2.53232271      -0.32182757  T      -0.01770563       0.00679376      -0.01447273
Si      -4.53911849      -1.13534340       4.12245122  T       0.02076555       0.01334393       0.03518122
Si      -1.50369211      -3.71456195      -1.73873666  T      -0.04128992       0.01689594      -0.02605137
Si      -2.54181456      -3.73951400       1.61275473  T       0.01159918       0.00390274       0.03350756
Si      -0.22274936      -0.91824748       0.12730278  T       0.01125771      -0.01255185       0.02560427
Si      -0.92120785      -0.87137307       4.02699980  T       0.00076521       0.03231602      -0.04606735
Si       1.88170628      -3.42942773      -1.77410498  T       0.01178082      -0.02148852      -0.01818270
Si       1.18482964      -2.37918748       1.39976212  T       0.00069725      -0.01403909      -0.02519188
Si       3.46346754       0.30962945       0.33026050  T      -0.02434138      -0.00157813      -0.01423328
Si       3.96790871      -0.09070372       2.75325134  T       0.01256162      -0.02621115       0.00711621
Si       4.86265236       3.35610741      -2.47992961  T       0.01279692      -0.00616518      -0.02441737
Si       4.03947503       2.53232394      -0.32182806  T       0.01771168      -0.00678846      -0.01447128
Si      -2.42347010       3.27121611       1.05997615  T       0.01558419      -0.00183106       0.00174112
Si      -2.78107401       2.38342765       3.29313460  T      -0.01613578      -0.02593487      -0.00934071
Si      -2.47968305       1.12918480      -1.62572805  T       0.00886949      -0.02570246       0.03748815
Si      -2.49632168      -0.30962714       0.33026055  T       0.02433960       0.00156844      -0.01423080
Si      -0.21768624       2.37918531       1.39976027  T      -0.00069498       0.01403971      -0.02519517
Si      -0.46061231       1.54737810       3.63165687  T       0.01753830      -0.00490918       0.02636375
Si       0.90976192       1.95759731      -1.95642964  T       0.01613048      -0.03196841       0.03123788
Si       1.18989389       0.91824442       0.12730205  T      -0.01125824       0.01255726       0.02560284
Si       3.50895691       3.73951596       1.61275367  T      -0.01159740      -0.00390366       0.03350599
Si       3.68584242       2.54840207       3.70170639  T      -0.02553644      -0.04629027       0.01869402
Si       3.17125931       6.62682312       3.39821443  T      -0.02173297       0.03359947       0.03562996
Si       4.02797149       5.68193340       5.43375151  T       0.00249389      -0.01582341      -0.00112864
Si      -3.06082283      -5.68194180       5.43375112  T      -0.00249556       0.01582149      -0.00112876
Si      -2.02610541      -6.63641148       7.35937863  T      -0.00019407       0.00111536       0.05149569
Si      -1.06232242       6.31308543       3.49323785  T       0.00188271       0.01982577       0.03490805
Si      -1.70377777       5.07471255       5.45310102  T      -0.00351987       0.01079828      -0.00020257
Si      -0.32757047      -4.33060354       5.69778319  T       0.02567178      -0.01740256       0.00838688
Si       0.04528287      -5.53553439       7.77168757  T      -0.01697605      -0.01607075       0.01355792
Si       1.13757284       5.50276975       3.64581049  T       0.02407476       0.01594132      -0.00928313
Si       1.29471406       4.33060111       5.69778170  T      -0.02567285       0.01740011       0.00838871
Si       2.67092801      -5.07471296       5.45309943  T       0.00352058      -0.01079652      -0.00020197
Si       2.14187357      -6.46651364       7.32992490  T       0.02057773      -0.00437114       0.02390716
Si       3.74822064      -2.38342432       3.29313499  T       0.01613340       0.02593211      -0.00934100
Si       4.05273209      -3.10502646       5.65535375  T      -0.01654150      -0.01715902      -0.00614567
Si      -3.62830854      -0.95874116       6.35721601  T       0.01812292       0.03371899       0.00154268
Si      -4.48044317      -1.67833980       8.55525258  T       0.01679963       0.01604949      -0.01761587
Si      -2.71870169      -2.54840069       3.70170782  T       0.02553891       0.04628937       0.01870006
Si      -2.47230408      -3.42533575       5.91086555  T       0.01971458      -0.02314648      -0.00848094
Si      -0.57515931      -0.58871294       6.39279387  T      -0.00047692       0.03686585       0.02487307
Si      -0.77829340      -1.87237014       8.50857882  T      -0.02943628       0.04765836      -0.01022381
Si       1.42775635      -1.54738121       3.63166014  T      -0.01753936       0.00490802       0.02635927
Si       1.59595855      -2.88676278       5.68879686  T      -0.01624124       0.01028053       0.01728322
Si       3.27782338      -1.02140725       6.62927479  T       0.00051572      -0.03417912       0.02938033
Si       3.20340428      -1.98640428       8.80297953  T       0.01450603      -0.06130540       0.05781689
Si       5.50626444       1.13535006       4.12244684  T      -0.02076080      -0.01334003       0.03518372
Si       4.59545947       0.95875545       6.35721507  T      -0.01812250      -0.03371910       0.00154002
Si      -3.08558891       3.10503308       5.65534993  T       0.01654280       0.01716233      -0.00614729
Si      -4.10978138       3.12375658       7.94850502  T       0.00966492      -0.00129670      -0.02258420
Si      -3.00076358       0.09070730       2.75325104  T      -0.01256346       0.02621050       0.00711702
Si      -2.31067582       1.02142384       6.62928364  T      -0.00051703       0.03418296       0.02938105
Si      -0.62881449       2.88675644       5.68879584  T       0.01624079      -0.01027751       0.01728122
Si      -0.13586149       3.19588061       8.15780322  T      -0.02769037       0.02565049       0.00040504
Si       1.88835223       0.87137052       4.02699773  T      -0.00076786      -0.03231431      -0.04606660
Si       1.54229525       0.58871606       6.39279152  T       0.00047623      -0.03686755       0.02487313
Si       3.43944700       3.42532829       5.91086788  T      -0.01971383       0.02314476      -0.00847465
Si       3.74487368       3.24483570       8.30525650  T      -0.02719145       0.01188138       0.02926316
Si       2.99325049       6.63640429       7.35937670  T       0.00019496      -0.00111380       0.05149563
Si       4.15400258       5.49451124       9.08388308  T      -0.00681040      -0.01379637      -0.00919104
Si      -3.18685619      -5.49451055       9.08388065  T       0.00680855       0.01379831      -0.00919079
Si      -2.93149841      -5.76473339      11.56876069  T       0.00003687       0.00614445       0.01640827
Si      -1.17473233       6.46651572       7.32992733  T      -0.02057455       0.00436977       0.02390591
Si      -1.84347293       6.16640090       9.68342325  T      -0.00296391       0.01229719      -0.02991747
Si       0.32292815      -5.69516371      10.26431074  T      -0.03269780      -0.00846413      -0.01300465
Si      -0.79260383      -6.61828055      12.23378868  T      -0.00010526       0.01815280      -0.00821839
Si       0.92185828       5.53553482       7.77168698  T       0.01697777       0.01606885       0.01355738
Si       0.64421813       5.69516874      10.26431186  T       0.03269880       0.00846239      -0.01300668
Si       2.81061702      -6.16640304       9.68341994  T       0.00296235      -0.01229704      -0.02991590
Si       2.89431367      -5.77230138      12.27407102  T       0.00347366      -0.01034157      -0.02060633
Si       5.07692325      -3.12375683       7.94851169  T      -0.00966663       0.00129479      -0.02258488
Si       4.33283116      -4.31812987       9.94156774  T      -0.00021400       0.04117625      -0.01016854
Si      -4.30468103      -0.62360540      10.65110411  T       0.00491908       0.03274388      -0.02678816
Si      -4.27280573      -1.94873377      12.59425861  T      -0.02698530      -0.07634111       0.01452186
Si      -2.77772962      -3.24483479       8.30525235  T       0.02719218      -0.01188012       0.02926087
Si      -1.54333207      -4.18922106      10.31547411  T      -0.01184282      -0.00231618       0.01753153
Si      -0.47244623      -0.69553034      10.61928943  T       0.04355448      -0.04624070       0.01207832
Si      -0.52985465      -2.06886138      12.61407344  T       0.00021583       0.00440426      -0.00088618
Si       1.10301284      -3.19587336       8.15780295  T       0.02768877      -0.02564661       0.00040490
Si       1.96237766      -3.96560565      10.36118664  T      -0.01735269       0.00377833       0.00979281
Si       3.34050973      -0.68031612      10.74071473  T       0.02692764      -0.01070402       0.01702427
Si       3.30906208      -2.01587065      12.67651979  T       0.00084814       0.02777655      -0.00759445
Si       5.44759177       1.67834551       8.55525686  T      -0.01679943      -0.01604982      -0.01761865
Si       5.27182665       0.62360628      10.65110560  T      -0.00492053      -0.03274284      -0.02678875
Si      -3.36568410       4.31812419       9.94156640  T       0.00021234      -0.04117628      -0.01016666
Si      -3.56868885       4.01364033      12.42641346  T      -0.02161600       0.00705001      -0.00581639
Si      -2.23625839       1.98641967       8.80299085  T      -0.01450532       0.06130440       0.05781652
Si      -2.37336519       0.68031794      10.74071628  T      -0.02692723       0.01070320       0.01702353
Si      -0.99522864       3.96560793      10.36119064  T       0.01735207      -0.00377806       0.00979235
Si      -0.47777961       3.41868446      12.64096132  T       0.01637786       0.02050946       0.00911943
Si       1.74543919       1.87236944       8.50857862  T       0.02943377      -0.04765898      -0.01022419
Si       1.43959025       0.69553158      10.61928994  T      -0.04355424       0.04623941       0.01207783
Si       2.51047684       4.18922372      10.31547721  T       0.01184376       0.00231713       0.01753051
Si       3.46727796       3.51547407      12.57225721  T       0.00888425       0.00803643      -0.01346655
Si       3.89864387       5.76473494      11.56876372  T      -0.00003597      -0.00614413       0.01640836
Si       5.31929168       6.15486635      14.60387351  F      -0.52137183       0.30518175       0.52702920
Si      -4.35214774      -6.15486635      14.60387351  F       0.52137272      -0.30518242       0.52703067
Si      -4.35214774      -7.52261443      16.53816140  F       0.17723651       1.07967749      -0.02649531
Si      -1.92717393       5.77230284      12.27407014  T      -0.00347461       0.01033651      -0.02060729
Si      -2.41785985       6.15486635      14.60387351  F      -0.22734712      -0.21611115       0.49163530
Si      -0.48357197      -6.15486635      14.60387351  F       0.00503969       0.38323681      -0.19668390
Si      -0.48357197      -7.52261443      16.53816140  F      -0.03719426       0.04168854       0.03574503
Si       1.75975004       6.61828478      12.23379036  T       0.00010545      -0.01815334      -0.00821890
Si       1.45071591       6.15486635      14.60387351  F      -0.00503933      -0.38323535      -0.19668198
Si       3.38500379      -6.15486635      14.60387351  F       0.22734795       0.21611063       0.49163613
Si       3.38500379      -7.52261443      16.53816140  F      -0.24586019       0.13409630      -0.01493612
Si       4.53583155      -4.01364183      12.42641367  T       0.02161936      -0.00704827      -0.00581570
Si       5.31929168      -4.78711827      14.60387351  F      -0.33492552      -0.07885485       0.01818447
Si      -4.35214774      -0.68387404      14.60387351  F       0.20206598      -0.12983481      -0.04086028
Si      -4.35214774      -2.05162212      16.53816140  F       0.10186597       0.17945800      -0.05902566
Si      -2.50013381      -3.51547445      12.57225657  T      -0.00888355      -0.00803489      -0.01346663
Si      -2.41785985      -4.78711827      14.60387351  F      -0.15959858      -0.18611982       0.13358142
Si      -0.48357197      -0.68387404      14.60387351  F       0.04151326      -0.02141526      -0.15692772
Si      -0.48357197      -2.05162212      16.53816140  F       0.07524410      -0.01807213      -0.04885194
Si       1.44492466      -3.41868530      12.64095949  T      -0.01637751      -0.02051080       0.00911819
Si       1.45071591      -4.78711827      14.60387351  F      -0.11015016      -0.14134731      -0.04847496
Si       3.38500379      -0.68387404      14.60387351  F       0.22258655       0.13917239       0.31442933
Si       3.38500379      -2.05162212      16.53816140  F       0.11643973      -0.09299686      -0.10534242
Si       5.23995108       1.94873471      12.59425966  T       0.02698494       0.07634216       0.01452180
Si       5.31929168       0.68387404      14.60387351  F      -0.20206558       0.12983454      -0.04085717
Si      -4.35214774       4.78711827      14.60387351  F       0.33492527       0.07885329       0.01818284
Si      -4.35214774       3.41937020      16.53816140  F       0.08743726       0.02420083      -0.06280438
Si      -2.34191734       2.01587106      12.67652077  T      -0.00084851      -0.02777565      -0.00759309
Si      -2.41785985       0.68387404      14.60387351  F      -0.22258672      -0.13917369       0.31443386
Si      -0.48357197       4.78711827      14.60387351  F       0.11014906       0.14134951      -0.04847222
Si      -0.48357197       3.41937020      16.53816140  F       0.07382765      -0.11829413       0.05567808
Si       1.49699925       2.06886108      12.61407446  T      -0.00021770      -0.00440398      -0.00088694
Si       1.45071591       0.68387404      14.60387351  F      -0.04151238       0.02141283      -0.15692430
Si       3.38500379       4.78711827      14.60387351  F       0.15959765       0.18611986       0.13358271
Si       3.38500379       3.41937020      16.53816140  F       0.17055788      -0.12980693       0.01588187
Si       5.31929168       7.52261443      16.53816140  F      -0.17723679      -1.07967639      -0.02649494
Si       5.31929168       6.15486635      18.47244928  F      -0.40908447       0.77533012       0.25478079
Si      -4.35214774      -6.15486635      18.47244928  F       0.40908442      -0.77533031       0.25478093
Si      -4.35214774      -7.52261443      20.40673716  F       0.53594222       0.75108014      -1.10433932
Si      -2.41785985       7.52261443      16.53816140  F       0.24585991      -0.13409577      -0.01493620
Si      -2.41785985       6.15486635      18.47244928  F       0.01244665       0.24117829       0.19403850
Si      -0.48357197      -6.15486635      18.47244928  F       0.06855922      -0.28112204       0.08089037
Si      -0.48357197      -7.52261443      20.40673716  F       0.02105662       0.55516700      -0.75775185
Si       1.45071591       7.52261443      16.53816140  F       0.03719427      -0.04168859       0.03574548
Si       1.45071591       6.15486635      18.47244928  F      -0.06855941       0.28112199       0.08089018
Si       3.38500379      -6.15486635      18.47244928  F      -0.01244656      -0.24117838       0.19403847
Si       3.38500379      -7.52261443      20.40673716  F      -0.39589660       0.57865888      -0.84656440
Si       5.31929168      -3.41937020      16.53816140  F      -0.08743759      -0.02420062      -0.06280498
Si       5.31929168      -4.78711827      18.47244928  F      -0.22509951       0.25770487       0.22722614
Si      -4.35214774      -0.68387404      18.47244928  F       0.17337834      -0.32666401       0.18513754
Si      -4.35214774      -2.05162212      20.40673716  F       0.81493235      -0.00940616      -0.80270960
Si      -2.41785985      -3.41937020      16.53816140  F      -0.17055797       0.12980683       0.01588169
Si      -2.41785985      -4.78711827      18.47244928  F      -0.11023767      -0.09539295       0.17526472
Si      -0.48357197      -0.68387404      18.47244928  F       0.10730409      -0.04685501       0.13008894
Si      -0.48357197      -2.05162212      20.40673716  F       0.08805711      -0.23289068      -0.13897590
Si       1.45071591      -3.41937020      16.53816140  F      -0.07382682       0.11829488       0.05567840
Si       1.45071591      -4.78711827      18.47244928  F      -0.12460238      -0.00725517       0.21617195
Si       3.38500379      -0.68387404      18.47244928  F       0.07233681      -0.00317403       0.10526431
Si       3.38500379      -2.05162212      20.40673716  F       0.18471435      -0.32573775      -0.17432236
Si       5.31929168       2.05162212      16.53816140  F      -0.10186572      -0.17945844      -0.05902540
Si       5.31929168       0.68387404      18.47244928  F      -0.17337833       0.32666409       0.18513761
Si      -4.35214774       4.78711827      18.47244928  F       0.22509947      -0.25770491       0.22722615
Si      -4.35214774       3.41937020      20.40673716  F       0.77402998      -0.02621954      -0.78821953
Si      -2.41785985       2.05162212      16.53816140  F      -0.11643955       0.09299651      -0.10534212
Si      -2.41785985       0.68387404      18.47244928  F      -0.07233688       0.00317410       0.10526436
Si      -0.48357197       4.78711827      18.47244928  F       0.12460235       0.00725519       0.21617183
Si      -0.48357197       3.41937020      20.40673716  F       0.09033282      -0.21773374      -0.10139679
Si       1.45071591       2.05162212      16.53816140  F      -0.07524408       0.01807216      -0.04885192
Si       1.45071591       0.68387404      18.47244928  F      -0.10730413       0.04685496       0.13008900
Si       3.38500379       4.78711827      18.47244928  F       0.11023773       0.09539286       0.17526477
Si       3.38500379       3.41937020      20.40673716  F       0.22979278      -0.29414784      -0.16142576
