360
Lattice="11.605727294873521 0.0 0.0 0.0 16.412976941613742 0.0 0.0 0.0 38.6857576495784" Properties=species:S:1:pos:R:3:move_mask:L:1:forces:R:3 energy=-1737.2182988608631 free_energy=-1737.2182988608631 pbc="F F F"
Si       5.31929168       7.52261443      20.40673716  F      -0.53643590      -0.75125490      -1.10493974
Si       5.31929168       6.15486635     -19.43959322  F      -0.85616311       0.16022040       1.05448824
Si      -4.35214774      -6.15486635     -19.43959322  F       0.85616301      -0.16022044       1.05448789
Si      -4.35214774      -7.52261443     -17.50530534  F       0.06799525       0.94002038      -0.22750566
Si      -2.41785985       7.52261443      20.40673716  F       0.39556568      -0.57826633      -0.84697414
Si      -2.41785985       6.15486635     -19.43959322  F      -0.11493828      -0.24428166       0.66416136
Si      -0.48357197      -6.15486635     -19.43959322  F       0.05572261       0.07659366       0.63799911
Si      -0.48357197      -7.52261443     -17.50530534  F      -0.00201570       0.37396732      -0.26165328
Si       1.45071591       7.52261443      20.40673716  F      -0.01937339      -0.55479181      -0.75701690
Si       1.45071591       6.15486635     -19.43959322  F      -0.05572263      -0.07659361       0.63799932
Si       3.38500379      -6.15486635     -19.43959322  F       0.11493847       0.24428176       0.66416156
Si       3.38500379      -7.52261443     -17.50530534  F      -0.11010483       0.42898309      -0.18399160
Si       5.31929168      -3.41937020      20.40673716  F      -0.77402508       0.02598392      -0.78855357
Si       5.31929168      -4.78711827     -19.43959322  F      -0.79932091       0.02971698       0.77052455
Si      -4.35214774      -0.68387404     -19.43959322  F       0.80442330       0.00555734       0.80027736
Si      -4.35214774      -2.05162212     -17.50530534  F       0.17429150       0.31476307      -0.19292424
Si      -2.41785985      -3.41937020      20.40673716  F      -0.23019880       0.29321975      -0.15938940
Si      -2.41785985      -4.78711827     -19.43959322  F      -0.23181641      -0.26336676       0.16178021
Si      -0.48357197      -0.68387404     -19.43959322  F       0.08815669       0.22294923       0.11429371
Si      -0.48357197      -2.05162212     -17.50530534  F       0.11657717      -0.00116487      -0.16499747
Si       1.45071591      -3.41937020      20.40673716  F      -0.09048472       0.21862955      -0.10045102
Si       1.45071591      -4.78711827     -19.43959322  F      -0.08658633      -0.07437777       0.06970890
Si       3.38500379      -0.68387404     -19.43959322  F       0.19586665       0.34411306       0.16161931
Si       3.38500379      -2.05162212     -17.50530534  F       0.06661699      -0.04634551      -0.12662539
Si       5.31929168       2.05162212      20.40673716  F      -0.81438469       0.00978239      -0.80411468
Si       5.31929168       0.68387404     -19.43959322  F      -0.80442345      -0.00555814       0.80027775
Si      -4.35214774       4.78711827     -19.43959322  F       0.79932090      -0.02971725       0.77052480
Si      -4.35214774       3.41937020     -17.50530534  F       0.15562471       0.29919691      -0.19939832
Si      -2.41785985       2.05162212      20.40673716  F      -0.18427853       0.32581480      -0.17476047
Si      -2.41785985       0.68387404     -19.43959322  F      -0.19586622      -0.34411218       0.16161867
Si      -0.48357197       4.78711827     -19.43959322  F       0.08658666       0.07437764       0.06970912
Si      -0.48357197       3.41937020     -17.50530534  F       0.11503194       0.01650224      -0.14578116
Si       1.45071591       2.05162212      20.40673716  F      -0.08821069       0.23366808      -0.13914458
Si       1.45071591       0.68387404     -19.43959322  F      -0.08815640      -0.22294937       0.11429367
Si       3.38500379       4.78711827     -19.43959322  F       0.23181627       0.26336768       0.16177946
Si       3.38500379       3.41937020     -17.50530534  F       0.11029002       0.02221885      -0.12205908
Si       5.31929168       7.52261443     -17.50530534  F      -0.06799553      -0.94002008      -0.22750576
Si       5.31929168       6.15486635     -15.57101745  F      -0.47466540       0.44061408       0.10777670
Si      -4.35214774      -6.15486635     -15.57101745  F       0.47466601      -0.44061592       0.10777757
Si      -4.35214774      -7.52261443     -13.63672957  F      -0.14347032       0.28552859      -0.61942903
Si      -2.41785985       7.52261443     -17.50530534  F       0.11010511      -0.42898338      -0.18399042
Si      -2.41785985       6.15486635     -15.57101745  F      -0.03821960      -0.11538831       0.08311076
Si      -0.48357197      -6.15486635     -15.57101745  F      -0.17520429      -0.03329432      -0.07642470
Si      -0.48357197      -7.52261443     -13.63672957  F      -0.01700292       0.34780153       0.52295729
Si       1.45071591       7.52261443     -17.50530534  F       0.00201617      -0.37396748      -0.26165308
Si       1.45071591       6.15486635     -15.57101745  F       0.17520582       0.03329351      -0.07642578
Si       3.38500379      -6.15486635     -15.57101745  F       0.03821972       0.11538870       0.08310962
Si       3.38500379      -7.52261443     -13.63672957  F      -0.16172968       0.03404867      -0.09959793
Si       5.31929168      -3.41937020     -17.50530534  F      -0.15562601      -0.29919525      -0.19939771
Si       5.31929168      -4.78711827     -15.57101745  F      -0.13463604       0.15914719       0.06994462
Si      -4.35214774      -0.68387404     -15.57101745  F       0.12144786      -0.19043672       0.05425420
Si      -4.35214774      -2.05162212     -13.63672957  F       0.10551703      -0.10156854      -0.23655745
Si      -2.41785985      -3.41937020     -17.50530534  F      -0.11028991      -0.02222176      -0.12206157
Si      -2.41785985      -4.78711827     -15.57101745  F      -0.18971649      -0.15256796       0.20132018
Si      -0.48357197      -0.68387404     -15.57101745  F       0.08912008      -0.00367093       0.05720286
Si      -0.48357197      -2.05162212     -13.63672957  F       0.07119765      -0.03854796      -0.04247092
Si       1.45071591      -3.41937020     -17.50530534  F      -0.11503152      -0.01650087      -0.14578106
Si       1.45071591      -4.78711827     -15.57101745  F      -0.04726477      -0.12762953       0.11048197
Si       3.38500379      -0.68387404     -15.57101745  F       0.14423215       0.06948756       0.06814893
Si       3.38500379      -2.05162212     -13.63672957  F       0.15251214       0.07081211      -0.12548749
Si       5.31929168       2.05162212     -17.50530534  F      -0.17429368      -0.31475706      -0.19292484
Si       5.31929168       0.68387404     -15.57101745  F      -0.12144760       0.19041680       0.05426401
Si      -4.35214774       4.78711827     -15.57101745  F       0.13463536      -0.15915136       0.06994466
Si      -4.35214774       3.41937020     -13.63672957  F       0.09926637       0.15767219       0.15391469
Si      -2.41785985       2.05162212     -17.50530534  F      -0.06661682       0.04634120      -0.12662399
Si      -2.41785985       0.68387404     -15.57101745  F      -0.14423044      -0.06947540       0.06814335
Si      -0.48357197       4.78711827     -15.57101745  F       0.04726492       0.12762846       0.11047854
Si      -0.48357197       3.41937020     -13.63672957  F      -0.15097461      -0.50001051      -0.40769037
Si       1.45071591       2.05162212     -17.50530534  F      -0.11657605       0.00116509      -0.16499641
Si       1.45071591       0.68387404     -15.57101745  F      -0.08912238       0.00366855       0.05719960
Si       3.38500379       4.78711827     -15.57101745  F       0.18971474       0.15257760       0.20131883
Si       3.38500379       3.41937020     -13.63672957  F       0.01906618       0.03540278      -0.21229909
Si       5.31929168       7.52261443     -13.63672957  F       0.14349935      -0.28551708      -0.61944720
Si       3.47790997       7.13954112     -12.29117354  T       0.00609429       0.05435235       0.02646581
Si      -2.51076288      -7.13953428     -12.29116978  T      -0.00617265      -0.05450368       0.02640201
Si      -1.90889013      -7.97547464      -9.99583132  T      -0.04137213       0.00244334      -0.01810647
Si      -2.41785985       7.52261443     -13.63672957  F       0.16172754      -0.03404704      -0.09959695
Si      -2.50830781       6.20431840     -11.69363666  T       0.03773277      -0.02606956       0.03523212
Si      -0.02347619      -5.94791573     -11.91723016  T      -0.00249169      -0.09030478      -0.02446014
Si       0.26523253      -7.07178781      -9.90125850  T      -0.01103735      -0.00328694      -0.04499818
Si       1.45071591       7.52261443     -13.63672957  F       0.01699917      -0.34782274       0.52297997
Si       0.99060587       5.94791315     -11.91723112  T       0.00280931       0.09036331      -0.02447507
Si       3.47544542      -6.20431654     -11.69363763  T      -0.03759899       0.02605495       0.03523490
Si       2.60490768      -7.54594745      -9.85162624  T       0.02490081      -0.01858164      -0.01783514
Si       5.31929168      -3.41937020     -13.63672957  F      -0.09926612      -0.15765270       0.15391487
Si       5.33241827      -4.74709360     -11.63101651  T      -0.02552927       0.03145137      -0.06363759
Si      -4.30394458      -0.81035433     -11.67771016  T      -0.05045276      -0.07220221       0.02647074
Si      -4.23451750      -2.25806462      -9.83011730  T       0.00281573       0.01962100      -0.03512525
Si      -2.41785985      -3.41937020     -13.63672957  F      -0.01904219      -0.03547885      -0.21225316
Si      -2.09298193      -4.85656081     -11.79768536  T       0.01357943       0.03454005      -0.00029279
Si      -0.47781354      -0.68713698     -11.70562483  T       0.04000062       0.03695793      -0.03215848
Si      -0.43771267      -2.04957045      -9.77243536  T      -0.04312587      -0.00498990      -0.06720052
Si       1.45071591      -3.41937020     -13.63672957  F       0.15098043       0.50000153      -0.40769458
Si       1.79291356      -4.58592462     -11.68591269  T       0.05738237      -0.04333520       0.01220255
Si       3.42178321      -0.61958685     -11.72583062  T      -0.01305447       0.03339080      -0.02997919
Si       3.52985573      -1.86743900      -9.73033634  T      -0.02123724      -0.00851452      -0.05995416
Si       5.31929168       2.05162212     -13.63672957  F      -0.10551781       0.10168429      -0.23662355
Si       5.27111038       0.81039059     -11.67770090  T       0.04996741       0.07141716       0.02624409
Si      -4.36527055       4.74709943     -11.63101877  T       0.02546727      -0.03157545      -0.06356025
Si      -4.23147639       3.51146021      -9.63570715  T      -0.06512485       0.00562454       0.04696788
Si      -2.41785985       2.05162212     -13.63672957  F      -0.15253275      -0.07087676      -0.12545653
Si      -2.45466666       0.61956109     -11.72583833  T       0.01364598      -0.03282949      -0.02980742
Si      -0.82575903       4.58592751     -11.68591416  T      -0.05760577       0.04328617       0.01223819
Si      -0.64212506       3.20057290      -9.79058614  T      -0.04544557      -0.07038901      -0.04718586
Si       1.45071591       2.05162212     -13.63672957  F      -0.07118906       0.03854316      -0.04246989
Si       1.44496156       0.68713631     -11.70562370  T      -0.04007936      -0.03693258      -0.03218331
Si       3.06013423       4.85654187     -11.79768377  T      -0.01375606      -0.03413053      -0.00037630
Si       3.24045787       3.56377154      -9.81815160  T       0.02295499      -0.00630634       0.01443123
Si       2.87603855       7.97547629      -9.99582939  T       0.04129609      -0.00244923      -0.01813252
Si       3.87987443       7.07851783      -7.96933492  T       0.01015027      -0.02320604       0.03587088
Si      -2.91272137      -7.07849418      -7.96933528  T      -0.01036124       0.02269842       0.03585351
Si      -2.03980315      -7.89926809      -5.85214896  T       0.00410673      -0.01455102      -0.05757995
Si      -1.63776129       7.54594697      -9.85162431  T      -0.02494215       0.01858804      -0.01783338
Si      -2.09712002       6.58046107      -7.72722426  T      -0.01784941       0.02051018       0.06072802
Si       0.17591791      -5.78084087      -7.95264270  T       0.05385761      -0.00656132       0.02817562
Si       0.10487640      -7.01297224      -5.97751958  T       0.03842339      -0.01560618      -0.02002457
Si       0.70190745       7.07178680      -9.90125747  T       0.01112849       0.00332828      -0.04505051
Si       0.79121165       5.78085003      -7.95264198  T      -0.05355555       0.00640179       0.02815389
Si       3.06426402      -6.58046157      -7.72722722  T       0.01786718      -0.02047832       0.06075793
Si       2.32835373      -7.72757477      -5.71564554  T       0.01592977       0.09555057       0.02498615
Si       5.19863140      -3.51147427      -9.63571059  T       0.06490033      -0.00531894       0.04702503
Si       4.38462947      -4.60295406      -7.66294236  T       0.03964083      -0.04861291      -0.00033590
Si      -4.26644869      -1.03222144      -7.85516549  T      -0.02406174       0.04851407       0.01182947
Si      -4.20504143      -2.45734340      -6.01319685  T       0.00413993      -0.01364699       0.05216503
Si      -2.27335316      -3.56373188      -9.81816322  T      -0.02214301       0.00547043       0.01470439
Si      -1.98870860      -4.92252317      -7.90540589  T      -0.05424474      -0.00478944       0.00789864
Si      -0.48039635      -0.67959248      -7.84725255  T      -0.00482162      -0.04631906       0.07214723
Si      -0.43982592      -2.02506562      -5.90756977  T       0.04598391       0.03433189      -0.03984951
Si       1.60926007      -3.20057597      -9.79058678  T       0.04563463       0.07043124      -0.04715540
Si       2.01312834      -4.32419405      -7.79208206  T      -0.05882961       0.00315557       0.10595202
Si       3.47721925      -0.52483024      -7.76603677  T       0.08911365      -0.00089001       0.00511266
Si       3.56906583      -1.66147235      -5.65990900  T       0.00603433      -0.01594154       0.03737745
Si       5.20169470       2.25801792      -9.83012449  T      -0.00347528      -0.01863057      -0.03501270
Si       5.23362051       1.03227386      -7.85515643  T       0.02351184      -0.04964669       0.01164238
Si      -3.41748347       4.60295895      -7.66294363  T      -0.03968331       0.04854764      -0.00031610
Si      -3.92055958       3.62999597      -5.53306387  T      -0.00754771      -0.08053955      -0.00882102
Si      -2.56271482       1.86746682      -9.73032978  T       0.02132016       0.00790477      -0.06008839
Si      -2.51010521       0.52479844      -7.76603817  T      -0.08846336       0.00155892       0.00512210
Si      -1.04598290       4.32419588      -7.79208521  T       0.05880190      -0.00317530       0.10601872
Si      -0.69894352       3.00722146      -5.87536152  T       0.03352287       0.00629503      -0.02857626
Si       1.40486091       2.04956867      -9.77243573  T       0.04301878       0.00501494      -0.06718589
Si       1.44754031       0.67959072      -7.84725287  T       0.00477186       0.04634495       0.07215274
Si       2.95586033       4.92246998      -7.90541150  T       0.05408835       0.00588452       0.00803993
Si       3.15439698       3.62606937      -5.92478684  T       0.01410038      -0.05256836      -0.00533441
Si       3.00695421       7.89927117      -5.85214845  T      -0.00426839       0.01450454      -0.05757292
Si       3.12056289       6.96608986      -3.50641364  T      -0.00109088      -0.05140419       0.05690202
Si      -2.15342244      -6.96609163      -3.50641751  T       0.00110023       0.05135070       0.05691412
Si      -2.68847946      -6.17593751      -0.94001113  T      -0.10190516      -0.01758750       0.03214904
Si      -1.36120669       7.72757138      -5.71564601  T      -0.01601780      -0.09550874       0.02501561
Si      -1.59390196       6.57239599      -3.49848978  T       0.05040542      -0.01285557      -0.01266340
Si       0.10499479      -6.09798400      -3.81998187  T      -0.05745011      -0.10465525       0.01872038
Si      -0.56262643      -5.44678755      -0.34844718  T       0.07695796       0.01831427       0.01895494
Si       0.86225491       7.01297154      -5.97752419  T      -0.03817642       0.01566804      -0.01994956
Si       0.86214739       6.09798440      -3.81998308  T       0.05742708       0.10463579       0.01869506
Si       2.56104590      -6.57239683      -3.49849356  T      -0.05039033       0.01285704      -0.01266058
Si       1.68581916      -5.84472024      -0.94294648  T      -0.04151958       0.03932388      -0.03701664
Si       4.88770484      -3.63000144      -5.53306226  T       0.00749575       0.08065231      -0.00883429
Si       4.01644624      -4.59928210      -3.49577699  T       0.00407764       0.00871938      -0.00928702
Si      -4.12862857      -1.49158369      -3.89373594  T      -0.03205960       0.03941188      -0.03669917
Si      -3.89190362      -3.33503611      -2.42452786  T       0.01747617      -0.09894925       0.03136247
Si      -2.18728437      -3.62604414      -5.92478204  T      -0.01344661       0.05203048      -0.00544688
Si      -2.27505115      -4.63064112      -3.75170662  T      -0.02228682       0.02390882      -0.00566623
Si      -0.36947175      -0.80338772      -3.88520039  T      -0.01629637       0.03379834       0.01819356
Si       0.11438885      -1.97179704      -1.82030133  T       0.00385267       0.03352684      -0.06210460
Si       1.66608153      -3.00721915      -5.87536904  T      -0.03339925      -0.00631322      -0.02845528
Si       1.65281498      -4.29601205      -3.92080608  T       0.10985606      -0.01738569       0.09605166
Si       3.45692362      -0.19190615      -3.71958326  T      -0.01513640      -0.00176313       0.00352016
Si       3.34883777      -1.03770695      -1.51181569  T      -0.05196591      -0.01178433      -0.00500662
Si       5.17221191       2.45730766      -6.01321947  T      -0.00471875       0.01440620       0.05263996
Si       5.09577421       1.49158939      -3.89373371  T       0.03203374      -0.03954232      -0.03677990
Si      -3.04929937       4.59928247      -3.49577374  T      -0.00410552      -0.00873901      -0.00931271
Si      -3.12582607       3.22246450      -1.21599185  T       0.00652727       0.01998541      -0.05602850
Si      -2.60192110       1.66148595      -5.65990750  T      -0.00604196       0.01566484       0.03732144
Si      -2.48977954       0.19190104      -3.71958098  T       0.01517399       0.00187418       0.00350320
Si      -0.68567260       4.29600595      -3.92080785  T      -0.10982785       0.01746717       0.09608872
Si      -0.87862170       3.58486204      -1.70259445  T       0.02453086       0.04437962      -0.06297529
Si       1.40697489       2.02506581      -5.90757077  T      -0.04609550      -0.03432685      -0.03984408
Si       1.33661666       0.80338348      -3.88520454  T       0.01629856      -0.03378509       0.01822573
Si       3.24219739       4.63063276      -3.75170954  T       0.02228579      -0.02377568      -0.00562487
Si       2.47658582       3.70089880      -1.64368266  T      -0.03924055       0.00108777      -0.04568493
Si       3.65561860       6.17593931      -0.94001156  T       0.10192083       0.01759120       0.03213352
Si       4.12641965       6.00653858       1.48444506  T      -0.03827167      -0.04923594      -0.02160204
Si      -3.15926855      -6.00653636       1.48444872  T       0.03827724       0.04922989      -0.02160112
Si      -2.18617538      -6.89323016       3.48670173  T      -0.01469848       0.03289853       0.07455890
Si      -0.71867671       5.84472258      -0.94295033  T       0.04153002      -0.03932807      -0.03701933
Si      -1.20975602       5.39116172       1.42259966  T       0.00961900       0.06614137      -0.00225979
Si      -0.26796958      -4.39288814       1.75121924  T       0.01387678       0.03283852       0.00734163
Si      -0.17346640      -5.72554196       3.72508534  T      -0.01645757       0.02557140      -0.01143081
Si       1.52976924       5.44678524      -0.34845009  T      -0.07698600      -0.01830810       0.01895544
Si       1.23510947       4.39288935       1.75121822  T      -0.01387537      -0.03284797       0.00733558
Si       2.17690095      -5.39115579       1.42260247  T      -0.00961382      -0.06613476      -0.00226080
Si       2.03403761      -6.49044021       3.56544054  T       0.03431801      -0.03146258      -0.07998020
Si       4.09297406      -3.22246457      -1.21598849  T      -0.00656450      -0.01994410      -0.05605566
Si       3.26481697      -3.35533074       1.09535453  T       0.04473043       0.00916954       0.05586234
Si      -3.07905046      -2.64614861      -0.17297845  T      -0.05980453       0.06174524      -0.01335599
Si      -4.44240824      -0.98785034       4.31601669  T       0.05670342      -0.01389768       0.06862905
Si      -1.50944113      -3.70089781      -1.64367728  T       0.03921768      -0.00110623      -0.04570043
Si      -2.58431937      -3.76328373       1.84066143  T      -0.00844669       0.02197405       0.03422963
Si      -0.20766626      -0.93367058       0.27158131  T       0.04962121      -0.04301968      -0.00186080
Si      -0.95247899      -0.80336290       4.17842866  T      -0.04359026       0.00634822      -0.04123995
Si       1.84576502      -3.58485987      -1.70258935  T      -0.02449899      -0.04439446      -0.06300689
Si       1.10086089      -2.46045889       1.57166812  T      -0.07053390       0.02310712      -0.06782877
Si       3.47115145       0.41019788       0.42019954  T      -0.00868958      -0.02089302      -0.01964063
Si       3.98784909      -0.16656609       2.78321118  T      -0.08268563      -0.00188396       0.01606122
Si       4.85904760       3.33503232      -2.42453008  T      -0.01746948       0.09899983       0.03136568
Si       4.04619283       2.64615081      -0.17298191  T       0.05979893      -0.06177687      -0.01334687
Si      -2.29766963       3.35533599       1.09535403  T      -0.04474650      -0.00917058       0.05584182
Si      -2.68685743       2.44017503       3.28553269  T      -0.01828815      -0.03833879       0.04237005
Si      -2.38169335       1.03771157      -1.51181308  T       0.05197598       0.01171441      -0.00504416
Si      -2.50400482      -0.41019819       0.42019664  T       0.00869333       0.02091829      -0.01962776
Si      -0.13371785       2.46045862       1.57166696  T       0.07054526      -0.02310921      -0.06783602
Si      -0.37878330       1.61894076       3.80363667  T       0.03006550      -0.02664048       0.04401169
Si       0.85275622       1.97179717      -1.82030207  T      -0.00385076      -0.03353365      -0.06210566
Si       1.17481313       0.93367057       0.27158349  T      -0.04962559       0.04302691      -0.00187427
Si       3.55146073       3.76328824       1.84065507  T       0.00844737      -0.02196708       0.03423172
Si       3.69772829       2.53538299       3.94120267  T      -0.00890999       0.02627013      -0.01035303
Si       3.15332534       6.89321810       3.48670149  T       0.01470158      -0.03288748       0.07455813
Si       4.04249359       5.97713230       5.53603447  T       0.01368401       0.07818045      -0.03911470
Si      -3.07535652      -5.97715930       5.53603739  T      -0.01368075      -0.07816953      -0.03912120
Si      -2.06264432      -6.75077251       7.55568574  T       0.02057610      -0.00416818      -0.02636397
Si      -1.06688463       6.49044540       3.56543786  T      -0.03431849       0.03146120      -0.07997158
Si      -1.71319423       5.26169842       5.51793611  T       0.04926117       0.03533282       0.03401712
Si      -0.29052855      -4.58646001       5.79291618  T       0.05624039      -0.01098782      -0.07389064
Si       0.06423271      -5.72643833       7.88071647  T      -0.03961890      -0.00735878       0.04035172
Si       1.14061509       5.72553558       3.72508902  T       0.01644879      -0.02557000      -0.01143478
Si       1.25767911       4.58644930       5.79291793  T      -0.05625058       0.01099202      -0.07388214
Si       2.68034375      -5.26169200       5.51793869  T      -0.04926372      -0.03533504       0.03402082
Si       2.20283698      -6.58166782       7.47723098  T       0.01393310       0.01085904      -0.02645757
Si       3.65400043      -2.44016879       3.28553615  T       0.01828900       0.03833433       0.04237177
Si       4.04588872      -3.30957968       5.54828211  T       0.03026425      -0.10609731      -0.01434299
Si      -3.53070099      -0.55965131       6.50010745  T       0.08986596       0.01801566       0.02250004
Si      -4.40725345      -1.55792796       8.52662925  T       0.05282526       0.01215989      -0.07169775
Si      -2.73058543      -2.53538650       3.94121396  T       0.00891296      -0.02627491      -0.01035681
Si      -2.44445076      -3.75546828       5.93775512  T      -0.03309674      -0.04170947       0.00263603
Si      -0.72662556      -0.41338540       6.53696957  T      -0.03335338       0.02107725       0.04752527
Si      -0.79147603      -1.89379690       8.49471152  T       0.01442268      -0.04200432       0.00517168
Si       1.34592430      -1.61894028       3.80364109  T      -0.03006728       0.02663759       0.04399550
Si       1.59009154      -3.06868906       5.75380023  T       0.04693829       0.01714198      -0.03493025
Si       3.28172941      -1.47307572       6.90140140  T      -0.04186493       0.06344722      -0.09336652
Si       3.17934767      -2.32017494       9.13165824  T      -0.09893509       0.01209977       0.00492782
Si       5.40956347       0.98786015       4.31600714  T      -0.05670010       0.01390045       0.06863699
Si       4.49785230       0.55967917       6.50010150  T      -0.08986671      -0.01803081       0.02250566
Si      -3.07875361       3.30959690       5.54827015  T      -0.03026287       0.10610251      -0.01433125
Si      -4.14718151       3.07473989       7.79915168  T       0.05285315      -0.04636862       0.07615775
Si      -3.02070334       0.16657227       2.78320678  T       0.08268744       0.00187887       0.01606911
Si      -2.31458454       1.47310649       6.90140890  T       0.04188495      -0.06346202      -0.09337587
Si      -0.62295464       3.06868848       5.75379683  T      -0.04693672      -0.01713565      -0.03493708
Si      -0.04382696       3.36555191       8.17135952  T      -0.01744331       0.00570040       0.03589042
Si       1.91962010       0.80336359       4.17842456  T       0.04358144      -0.00634989      -0.04123185
Si       1.69374871       0.41338958       6.53696559  T       0.03335582      -0.02108244       0.04752718
Si       3.41159397       3.75544098       5.93775944  T       0.03309795       0.04171471       0.00263256
Si       3.76613180       3.23138631       8.26463014  T       0.01659510       0.05504963       0.04683731
Si       3.02979449       6.75077209       7.55567882  T      -0.02057652       0.00416708      -0.02635779
Si       4.23256117       5.46956003       9.14144050  T       0.02525985      -0.03401062      -0.06735890
Si      -3.26541482      -5.46955298       9.14143744  T      -0.02525935       0.03399946      -0.06735066
Si      -3.10899002      -5.76453686      11.64344702  T       0.05211368       0.04387753       0.01681880
Si      -1.23568947       6.58166790       7.47723296  T      -0.01393255      -0.01086193      -0.02646511
Si      -1.98000755       6.12396864       9.74671111  T      -0.09570590       0.10715978      -0.08174386
Si       0.16536770      -5.70981625      10.32305801  T      -0.10400093       0.04721618      -0.01069321
Si      -0.95840049      -6.62094883      12.27124202  T      -0.03949706      -0.05211755      -0.00997691
Si       0.90291700       5.72644179       7.88071315  T       0.03961750       0.00735608       0.04035152
Si       0.80178190       5.70981313      10.32305364  T       0.10400377      -0.04722308      -0.01069372
Si       2.94714479      -6.12397327       9.74671626  T       0.09569954      -0.10715150      -0.08174915
Si       3.03360706      -5.78107138      12.23843613  T      -0.02660121      -0.00838994       0.01219870
Si       5.11432897      -3.07475453       7.79915734  T      -0.05287511       0.04639322       0.07613903
Si       4.39473749      -4.24457664       9.95916428  T       0.13566804      -0.05333377      -0.03278028
Si      -4.31662758      -0.55693744      10.65844528  T       0.00648588      -0.02937902       0.00104086
Si      -4.34661267      -1.94875582      12.57705814  T       0.03672399       0.04447546       0.04926141
Si      -2.79898559      -3.23138616       8.26461962  T      -0.01659349      -0.05505445       0.04683749
Si      -1.66493250      -4.20359369      10.38256344  T      -0.01843103      -0.02252407      -0.04589479
Si      -0.46320910      -0.70998401      10.60287209  T       0.02153329      -0.04223224       0.03360500
Si      -0.55576586      -2.05175343      12.62251789  T       0.02231525      -0.00038479      -0.02226484
Si       1.01097380      -3.36554321       8.17136214  T       0.01744537      -0.00569950       0.03589062
Si       1.87289826      -4.11938878      10.50863753  T       0.08634489       0.02884749       0.02329442
Si       3.31526241      -0.68373186      10.78795667  T       0.04166105      -0.01339536      -0.01920521
Si       3.28218421      -2.01278373      12.69590193  T      -0.01558854       0.04748209       0.05095350
Si       5.37440775       1.55793591       8.52663498  T      -0.05282344      -0.01215604      -0.07169958
Si       5.28377071       0.55693956      10.65844671  T      -0.00648623       0.02937205       0.00104353
Si      -3.42760573       4.24457923       9.95916722  T      -0.13565886       0.05331014      -0.03279628
Si      -3.60056035       3.95290463      12.42577595  T      -0.06121702       0.04618553       0.05484494
Si      -2.21219724       2.32018446       9.13167379  T       0.09892396      -0.01207225       0.00493368
Si      -2.34811812       0.68373012      10.78795930  T      -0.04166111       0.01339913      -0.01920565
Si      -0.90575369       4.11939341      10.50864302  T      -0.08634843      -0.02884300       0.02329447
Si      -0.44210293       3.39073092      12.70201959  T       0.05166595      -0.05801232      -0.01407140
Si       1.75861808       1.89379893       8.49471048  T      -0.01441949       0.04200051       0.00516903
Si       1.43035200       0.70998272      10.60287032  T      -0.02152923       0.04223161       0.03360704
Si       2.63208260       4.20359446      10.38256670  T       0.01843115       0.02252636      -0.04589905
Si       3.51480724       3.48925625      12.58293450  T       0.00654444       0.01338043       0.02650270
Si       4.07613832       5.76454118      11.64344858  T      -0.05211319      -0.04387774       0.01682084
Si       5.31929168       6.15486635      14.60387351  F      -0.48512301       0.27308996       0.47313385
Si      -4.35214774      -6.15486635      14.60387351  F       0.48512366      -0.27309185       0.47313617
Si      -4.35214774      -7.52261443      16.53816140  F       0.18707104       1.02870500      -0.01489581
Si      -2.06646375       5.78106654      12.23843373  T       0.02659455       0.00838908       0.01219719
Si      -2.41785985       6.15486635      14.60387351  F      -0.18284095      -0.24799326       0.43167767
Si      -0.48357197      -6.15486635      14.60387351  F      -0.03341840       0.38105711      -0.15573576
Si      -0.48357197      -7.52261443      16.53816140  F      -0.04985842       0.04757882       0.02703274
Si       1.92554556       6.62094551      12.27124041  T       0.03949776       0.05212263      -0.00996985
Si       1.45071591       6.15486635      14.60387351  F       0.03341821      -0.38105707      -0.15573948
Si       3.38500379      -6.15486635      14.60387351  F       0.18284259       0.24799139       0.43168645
Si       3.38500379      -7.52261443      16.53816140  F      -0.23673380       0.12530261      -0.01769746
Si       4.56770222      -3.95290849      12.42577429  T       0.06121906      -0.04617499       0.05484550
Si       5.31929168      -4.78711827      14.60387351  F      -0.32093760      -0.02962648      -0.03276471
Si      -4.35214774      -0.68387404      14.60387351  F       0.16271857      -0.14966845      -0.08343835
Si      -4.35214774      -2.05162212      16.53816140  F       0.09852384       0.18178731      -0.06545030
Si      -2.54766213      -3.48925553      12.58293417  T      -0.00654470      -0.01338260       0.02650158
Si      -2.41785985      -4.78711827      14.60387351  F      -0.15626172      -0.13828926       0.13237121
Si      -0.48357197      -0.68387404      14.60387351  F       0.00763899       0.03761269      -0.11854790
Si      -0.48357197      -2.05162212      16.53816140  F       0.07852580      -0.02587367      -0.04909508
Si       1.40924841      -3.39073296      12.70201732  T      -0.05166687       0.05801183      -0.01407014
Si       1.45071591      -4.78711827      14.60387351  F      -0.08261697      -0.19893258       0.07380726
Si       3.38500379      -0.68387404      14.60387351  F       0.21109243       0.18522445       0.43167525
Si       3.38500379      -2.05162212      16.53816140  F       0.11798625      -0.08587925      -0.09758109
Si       5.31375755       1.94875671      12.57705901  T      -0.03672238      -0.04447524       0.04926346
Si       5.31929168       0.68387404      14.60387351  F      -0.16271816       0.14966837      -0.08343661
Si      -4.35214774       4.78711827      14.60387351  F       0.32093660       0.02962577      -0.03276312
Si      -4.35214774       3.41937020      16.53816140  F       0.07719816       0.02977083      -0.04532222
Si      -2.31503953       2.01278274      12.69590269  T       0.01559127      -0.04748251       0.05095669
Si      -2.41785985       0.68387404      14.60387351  F      -0.21109279      -0.18522846       0.43168230
Si      -0.48357197       4.78711827      14.60387351  F       0.08261807       0.19893113       0.07381189
Si      -0.48357197       3.41937020      16.53816140  F       0.09943738      -0.09260226       0.04600588
Si       1.52291117       2.05175201      12.62251704  T      -0.02231405       0.00038441      -0.02226338
Si       1.45071591       0.68387404      14.60387351  F      -0.00763801      -0.03761423      -0.11854877
Si       3.38500379       4.78711827      14.60387351  F       0.15626096       0.13829239       0.13237262
Si       3.38500379       3.41937020      16.53816140  F       0.17044240      -0.12591694       0.02488442
Si       5.31929168       7.52261443      16.53816140  F      -0.18707122      -1.02870319      -0.01489514
Si       5.31929168       6.15486635      18.47244928  F      -0.41311103       0.76401058       0.25179671
Si      -4.35214774      -6.15486635      18.47244928  F       0.41311093      -0.76401095       0.25179677
Si      -4.35214774      -7.52261443      20.40673716  F       0.53643587       0.75125490      -1.10493972
Si      -2.41785985       7.52261443      16.53816140  F       0.23673382      -0.12530401      -0.01769746
Si      -2.41785985       6.15486635      18.47244928  F       0.01589574       0.24001255       0.19574259
Si      -0.48357197      -6.15486635      18.47244928  F       0.07585047      -0.28078098       0.08041434
Si      -0.48357197      -7.52261443      20.40673716  F       0.01937343       0.55479177      -0.75701693
Si       1.45071591       7.52261443      16.53816140  F       0.04985840      -0.04757911       0.02703220
Si       1.45071591       6.15486635      18.47244928  F      -0.07585047       0.28078112       0.08041451
Si       3.38500379      -6.15486635      18.47244928  F      -0.01589572      -0.24001225       0.19574240
Si       3.38500379      -7.52261443      20.40673716  F      -0.39556570       0.57826628      -0.84697415
Si       5.31929168      -3.41937020      16.53816140  F      -0.07719861      -0.02977085      -0.04532305
Si       5.31929168      -4.78711827      18.47244928  F      -0.22478428       0.25909574       0.22622808
Si      -4.35214774      -0.68387404      18.47244928  F       0.17259926      -0.32607346       0.18840284
Si      -4.35214774      -2.05162212      20.40673716  F       0.81438471      -0.00978238      -0.80411469
Si      -2.41785985      -3.41937020      16.53816140  F      -0.17044240       0.12591632       0.02488445
Si      -2.41785985      -4.78711827      18.47244928  F      -0.11222181      -0.09180928       0.18243355
Si      -0.48357197      -0.68387404      18.47244928  F       0.10846730      -0.04507858       0.13206988
Si      -0.48357197      -2.05162212      20.40673716  F       0.08821070      -0.23366806      -0.13914457
Si       1.45071591      -3.41937020      16.53816140  F      -0.09943723       0.09260299       0.04600573
Si       1.45071591      -4.78711827      18.47244928  F      -0.12395938      -0.00880738       0.21284165
Si       3.38500379      -0.68387404      18.47244928  F       0.07419615      -0.00397738       0.10681730
Si       3.38500379      -2.05162212      20.40673716  F       0.18427854      -0.32581480      -0.17476049
Si       5.31929168       2.05162212      16.53816140  F      -0.09852381      -0.18178749      -0.06544997
Si       5.31929168       0.68387404      18.47244928  F      -0.17259931       0.32607353       0.18840289
Si      -4.35214774       4.78711827      18.47244928  F       0.22478431      -0.25909586       0.22622792
Si      -4.35214774       3.41937020      20.40673716  F       0.77402505      -0.02598387      -0.78855357
Si      -2.41785985       2.05162212      16.53816140  F      -0.11798591       0.08587903      -0.09758089
Si      -2.41785985       0.68387404      18.47244928  F      -0.07419622       0.00397734       0.10681735
Si      -0.48357197       4.78711827      18.47244928  F       0.12395945       0.00880735       0.21284187
Si      -0.48357197       3.41937020      20.40673716  F       0.09048472      -0.21862948      -0.10045101
Si       1.45071591       2.05162212      16.53816140  F      -0.07852565       0.02587396      -0.04909524
Si       1.45071591       0.68387404      18.47244928  F      -0.10846729       0.04507850       0.13206982
Si       3.38500379       4.78711827      18.47244928  F       0.11222184       0.09180931       0.18243357
Si       3.38500379       3.41937020      20.40673716  F       0.23019880      -0.29321975      -0.15938936
