360
Lattice="11.605727294873521 0.0 0.0 0.0 16.412976941613742 0.0 0.0 0.0 38.6857576495784" Properties=species:S:1:pos:R:3:move_mask:L:1:forces:R:3 energy=-1753.0366692354637 free_energy=-1753.0366692354637 pbc="F F F"
Si       5.31929168       7.52261443      19.16879292  F      -0.54229741      -0.74160967      -1.08287241
Si       5.31929168       6.15486635     -18.20164897  F      -0.85603641       0.16020168       1.05448600
Si      -4.35214774      -6.15486635     -18.20164897  F       0.85604165      -0.16019470       1.05448440
Si      -4.35214774      -7.52261443     -16.26736109  F       0.06831734       0.93902213      -0.23113040
Si      -2.41785985       7.52261443      19.16879292  F       0.39745507      -0.57068508      -0.85893773
Si      -2.41785985       6.15486635     -18.20164897  F      -0.11475242      -0.24293105       0.66223706
Si      -0.48357197      -6.15486635     -18.20164897  F       0.05581656       0.07755323       0.63926072
Si      -0.48357197      -7.52261443     -16.26736109  F      -0.00247328       0.36953734      -0.26213339
Si       1.45071591       7.52261443      19.16879292  F      -0.01650696      -0.54617364      -0.75464666
Si       1.45071591       6.15486635     -18.20164897  F      -0.05582558      -0.07755994       0.63928550
Si       3.38500379      -6.15486635     -18.20164897  F       0.11474848       0.24292475       0.66223069
Si       3.38500379      -7.52261443     -16.26736109  F      -0.10803006       0.43539949      -0.18063669
Si       5.31929168      -3.41937020      19.16879292  F      -0.77589955       0.02859227      -0.78081044
Si       5.31929168      -4.78711827     -18.20164897  F      -0.79800152       0.02889510       0.76839637
Si      -4.35214774      -0.68387404     -18.20164897  F       0.80385595       0.00560838       0.79988482
Si      -4.35214774      -2.05162212     -16.26736109  F       0.17427505       0.31650093      -0.19546118
Si      -2.41785985      -3.41937020      19.16879292  F      -0.23047312       0.30357339      -0.14922595
Si      -2.41785985      -4.78711827     -18.20164897  F      -0.23168685      -0.26332069       0.16142478
Si      -0.48357197      -0.68387404     -18.20164897  F       0.08814663       0.22318735       0.11379668
Si      -0.48357197      -2.05162212     -16.26736109  F       0.11687205      -0.00036055      -0.16623308
Si       1.45071591      -3.41937020      19.16879292  F      -0.08814740       0.22154989      -0.10321010
Si       1.45071591      -4.78711827     -18.20164897  F      -0.08711607      -0.07490170       0.06910507
Si       3.38500379      -0.68387404     -18.20164897  F       0.19614233       0.34503849       0.16047630
Si       3.38500379      -2.05162212     -16.26736109  F       0.06658543      -0.04437963      -0.12688929
Si       5.31929168       2.05162212      19.16879292  F      -0.81276731       0.01054412      -0.79750068
Si       5.31929168       0.68387404     -18.20164897  F      -0.80385624      -0.00560762       0.79989806
Si      -4.35214774       4.78711827     -18.20164897  F       0.79799771      -0.02889572       0.76838485
Si      -4.35214774       3.41937020     -16.26736109  F       0.15408953       0.30090594      -0.20113012
Si      -2.41785985       2.05162212      19.16879292  F      -0.18267341       0.32696364      -0.17296461
Si      -2.41785985       0.68387404     -18.20164897  F      -0.19614597      -0.34505051       0.16047863
Si      -0.48357197       4.78711827     -18.20164897  F       0.08711942       0.07490338       0.06908979
Si      -0.48357197       3.41937020     -16.26736109  F       0.11697082       0.01531580      -0.14853326
Si       1.45071591       2.05162212      19.16879292  F      -0.08909470       0.23443952      -0.13265025
Si       1.45071591       0.68387404     -18.20164897  F      -0.08814266      -0.22319444       0.11380183
Si       3.38500379       4.78711827     -18.20164897  F       0.23168528       0.26330722       0.16140886
Si       3.38500379       3.41937020     -16.26736109  F       0.10934751       0.02344310      -0.12173440
Si       5.31929168       7.52261443     -16.26736109  F      -0.06831825      -0.93899064      -0.23118653
Si       5.31929168       6.15486635     -14.33307321  F      -0.47506841       0.43887015       0.11059542
Si      -4.35214774      -6.15486635     -14.33307321  F       0.47503719      -0.43885204       0.11047089
Si      -4.35214774      -7.52261443     -12.39878533  F      -0.22567073       0.25935439      -0.67835649
Si      -2.41785985       7.52261443     -16.26736109  F       0.10801106      -0.43538302      -0.18064907
Si      -2.41785985       6.15486635     -14.33307321  F      -0.04237858      -0.09473994       0.07659155
Si      -0.48357197      -6.15486635     -14.33307321  F      -0.16965563      -0.02323018      -0.05415501
Si      -0.48357197      -7.52261443     -12.39878533  F      -0.03421214       0.28041671       0.47886281
Si       1.45071591       7.52261443     -16.26736109  F       0.00246067      -0.36948653      -0.26219369
Si       1.45071591       6.15486635     -14.33307321  F       0.16979265       0.02329004      -0.05409621
Si       3.38500379      -6.15486635     -14.33307321  F       0.04239783       0.09477758       0.07660782
Si       3.38500379      -7.52261443     -12.39878533  F      -0.16217310       0.03172904      -0.15190774
Si       5.31929168      -3.41937020     -16.26736109  F      -0.15409125      -0.30088577      -0.20112590
Si       5.31929168      -4.78711827     -14.33307321  F      -0.12622647       0.16511879       0.05792539
Si      -4.35214774      -0.68387404     -14.33307321  F       0.11698910      -0.19880169       0.05299214
Si      -4.35214774      -2.05162212     -12.39878533  F       0.08875778      -0.07630363      -0.24036434
Si      -2.41785985      -3.41937020     -16.26736109  F      -0.10936407      -0.02344246      -0.12170589
Si      -2.41785985      -4.78711827     -14.33307321  F      -0.19810182      -0.15243845       0.19841310
Si      -0.48357197      -0.68387404     -14.33307321  F       0.08823964      -0.01317974       0.05286573
Si      -0.48357197      -2.05162212     -12.39878533  F       0.05630504      -0.02683434      -0.08808491
Si       1.45071591      -3.41937020     -16.26736109  F      -0.11698250      -0.01531624      -0.14853561
Si       1.45071591      -4.78711827     -14.33307321  F      -0.03972503      -0.12680920       0.10490539
Si       3.38500379      -0.68387404     -14.33307321  F       0.14479709       0.06494908       0.06113083
Si       3.38500379      -2.05162212     -12.39878533  F       0.15962599       0.01499996      -0.18718595
Si       5.31929168       2.05162212     -16.26736109  F      -0.17426942      -0.31648481      -0.19549284
Si       5.31929168       0.68387404     -14.33307321  F      -0.11696755       0.19874851       0.05307255
Si      -4.35214774       4.78711827     -14.33307321  F       0.12620921      -0.16522498       0.05782596
Si      -4.35214774       3.41937020     -12.39878533  F       0.08501754       0.10157840      -0.03748283
Si      -2.41785985       2.05162212     -16.26736109  F      -0.06660436       0.04437518      -0.12687716
Si      -2.41785985       0.68387404     -14.33307321  F      -0.14476608      -0.06500294       0.06117844
Si      -0.48357197       4.78711827     -14.33307321  F       0.03970964       0.12672495       0.10481805
Si      -0.48357197       3.41937020     -12.39878533  F      -0.12682466      -0.51235690      -0.43183376
Si       1.45071591       2.05162212     -16.26736109  F      -0.11689030       0.00035690      -0.16624680
Si       1.45071591       0.68387404     -14.33307321  F      -0.08822807       0.01313700       0.05292070
Si       3.38500379       4.78711827     -14.33307321  F       0.19820722       0.15230441       0.19830713
Si       3.38500379       3.41937020     -12.39878533  F       0.01425371       0.03556336      -0.22193726
Si       5.31929168       7.52261443     -12.39878533  F       0.22697630      -0.25880866      -0.67933563
Si       3.48288985       7.14779051     -10.96585861  T       0.00015077      -0.00033517      -0.00017391
Si      -2.51590658      -7.14711473     -10.96555506  T       0.00050909      -0.00044926      -0.00061344
Si      -1.94930482      -8.05751436      -8.68077916  T       0.00008040      -0.00043734      -0.00010964
Si      -2.41785985       7.52261443     -12.39878533  F       0.16212046      -0.03102545      -0.15306084
Si      -2.50128346       6.17070084     -10.39146234  T       0.00026355      -0.00057961       0.00001993
Si      -0.05793433      -5.98152231     -10.55208124  T       0.00007964      -0.00004402      -0.00003637
Si       0.21525324      -7.10582249      -8.49161945  T      -0.00051669       0.00008679      -0.00011579
Si       1.45071591       7.52261443     -12.39878533  F       0.03309823      -0.27913122       0.47699926
Si       1.02546152       5.98180033     -10.55202265  T      -0.00006090      -0.00002418      -0.00023734
Si       3.46882605      -6.17056818     -10.39135084  T      -0.00025019       0.00020263      -0.00030592
Si       2.63317012      -7.39923895      -8.44888760  T      -0.00013663      -0.00030432      -0.00027251
Si       5.31929168      -3.41937020     -12.39878533  F      -0.08489834      -0.10110323      -0.03784462
Si       5.37143583      -4.77267491     -10.35694310  T      -0.00014287      -0.00013094       0.00016476
Si      -4.34453412      -0.77530457     -10.36184912  T       0.00001382       0.00033853      -0.00013993
Si      -4.29542362      -2.18397012      -8.45615240  T      -0.00003090       0.00001189      -0.00000710
Si      -2.41785985      -3.41937020     -12.39878533  F      -0.01408231      -0.03476667      -0.22205505
Si      -2.12203754      -4.85480065     -10.46274250  T       0.00030302       0.00060008       0.00038178
Si      -0.48684486      -0.67005273     -10.38948871  T      -0.00015272      -0.00012412       0.00020168
Si      -0.48027059      -2.04145097      -8.43281471  T      -0.00015752      -0.00039145      -0.00026884
Si       1.45071591      -3.41937020     -12.39878533  F       0.12698784       0.51220033      -0.43120677
Si       1.75297505      -4.60414258     -10.36113903  T      -0.00046928       0.00032603      -0.00054042
Si       3.43763840      -0.63412719     -10.40531372  T       0.00019774       0.00032555       0.00005784
Si       3.52856419      -1.94192671      -8.41142919  T      -0.00024972      -0.00007746       0.00007184
Si       5.31929168       2.05162212     -12.39878533  F      -0.08837719       0.07685180      -0.24108123
Si       5.31236265       0.77559675     -10.36174469  T      -0.00033249       0.00009476      -0.00022051
Si      -4.40402039       4.77290041     -10.35699577  T       0.00042041      -0.00009828      -0.00009388
Si      -4.33380283       3.50375315      -8.35206720  T      -0.00027044      -0.00002640      -0.00034290
Si      -2.41785985       2.05162212     -12.39878533  F      -0.15899808      -0.01443297      -0.18739900
Si      -2.46983673       0.63439651     -10.40523309  T       0.00008429      -0.00011751       0.00009158
Si      -0.78530711       4.60441258     -10.36131771  T      -0.00003001      -0.00033575      -0.00054402
Si      -0.59884811       3.21478406      -8.43468410  T       0.00000674       0.00058441      -0.00053997
Si       1.45071591       2.05162212     -12.39878533  F      -0.05566231       0.02746093      -0.08854334
Si       1.45471504       0.67041788     -10.38938604  T       0.00010893       0.00013400      -0.00017057
Si       3.08963180       4.85525569     -10.46292652  T      -0.00017229       0.00009394      -0.00053371
Si       3.32616674       3.53417730      -8.46717960  T      -0.00019055       0.00015929      -0.00046459
Si       2.91621311       8.06004892      -8.68198881  T       0.00007637      -0.00012025       0.00002858
Si       3.92601124       7.15977436      -6.60802707  T       0.00032911       0.00017439       0.00019073
Si      -2.95895780      -7.15692346      -6.60679036  T      -0.00033621      -0.00035660      -0.00004225
Si      -2.00321143      -8.10483872      -4.56214801  T       0.00034619      -0.00026800       0.00015340
Si      -1.66563287       7.40036260      -8.44969652  T      -0.00048790       0.00002857      -0.00000185
Si      -2.24896963       6.20562916      -6.43727357  T      -0.00005175      -0.00005517       0.00007244
Si      -0.17902442      -5.85960303      -6.50634831  T      -0.00009067      -0.00019584       0.00008316
Si       0.11673268      -7.06993387      -4.49940541  T      -0.00015577       0.00002904      -0.00061276
Si       0.75225974       7.10721700      -8.49228655  T       0.00052254      -0.00001593      -0.00018181
Si       1.14721287       5.86165796      -6.50684906  T      -0.00012890      -0.00007621      -0.00022548
Si       3.21696625      -6.20469241      -6.43644478  T       0.00020395       0.00002731      -0.00000666
Si       2.49033562      -7.45470895      -4.48357641  T      -0.00034957      -0.00013665      -0.00032241
Si       5.30188248      -3.50352375      -8.35198860  T       0.00016448       0.00029134      -0.00018099
Si       5.20374529      -4.90761062      -6.42395518  T       0.00019110       0.00039476      -0.00035919
Si      -4.35092274      -0.90129357      -6.46389405  T      -0.00001179      -0.00008919       0.00014835
Si      -4.32852482      -2.20870454      -4.48766667  T       0.00014491       0.00025847      -0.00013342
Si      -2.35785392      -3.53294214      -8.46711691  T       0.00016708       0.00014685      -0.00017731
Si      -2.29029650      -4.88598830      -6.49983800  T       0.00023634       0.00012547      -0.00020088
Si      -0.49868636      -0.66928222      -6.46036004  T      -0.00035535      -0.00005719       0.00002700
Si      -0.50203431      -2.01710600      -4.48137128  T      -0.00016779      -0.00035906      -0.00021915
Si       1.56731599      -3.21403515      -8.43458303  T      -0.00051950      -0.00001993      -0.00006720
Si       1.65017696      -4.47740773      -6.43741980  T      -0.00022202       0.00007843      -0.00019583
Si       3.49620780      -0.57511737      -6.45059601  T      -0.00012293       0.00027826       0.00001179
Si       3.55063851      -1.92612171      -4.47207659  T      -0.00037534       0.00020497       0.00018623
Si       5.26369520       2.18511589      -8.45657450  T       0.00004520      -0.00024819      -0.00009744
Si       5.31961397       0.90323543      -6.46387998  T       0.00001927      -0.00012303       0.00005473
Si      -4.23572551       4.90848646      -6.42456493  T      -0.00014597       0.00003723      -0.00032813
Si      -4.26200296       3.59989493      -4.43631211  T       0.00005315       0.00017895      -0.00012272
Si      -2.56002882       1.94268996      -8.41157216  T      -0.00028009       0.00016100      -0.00022176
Si      -2.52718788       0.57660502      -6.45048076  T      -0.00040170      -0.00031108      -0.00001048
Si      -0.68152069       4.47886396      -6.43799629  T      -0.00032714       0.00028411      -0.00028322
Si      -0.58911445       3.15414156      -4.47114943  T       0.00002657       0.00013639       0.00002328
Si       1.44879153       2.04253211      -8.43316587  T       0.00019939      -0.00011472       0.00045758
Si       1.46781274       0.67110971      -6.46034336  T       0.00016242      -0.00054497      -0.00011562
Si       3.25861000       4.88835122      -6.50056764  T       0.00020964      -0.00051043      -0.00018927
Si       3.35247716       3.53276711      -4.51088230  T       0.00037580      -0.00026731       0.00011978
Si       2.97013128       8.10858785      -4.56378776  T      -0.00020248       0.00010464       0.00014123
Si       4.01215145       7.13001919      -2.57896144  T       0.00057021      -0.00040797      -0.00040342
Si      -3.04563544      -7.12543835      -2.57798739  T       0.00036840      -0.00066811      -0.00012754
Si      -2.08843358      -8.06826400      -0.54160902  T      -0.00007267      -0.00003594      -0.00028044
Si      -1.52287131       7.45655023      -4.48484284  T       0.00040937       0.00005474       0.00026784
Si      -2.15954973       6.24163284      -2.48808141  T       0.00038517       0.00010088      -0.00009869
Si      -0.23018377      -5.82591655      -2.51710026  T       0.00000221      -0.00011804      -0.00013947
Si       0.04583722      -7.05775919      -0.52018910  T      -0.00016199      -0.00015832      -0.00002601
Si       0.85083409       7.07256461      -4.50043163  T      -0.00000798       0.00006924      -0.00023270
Si       1.19848265       5.82930545      -2.51777340  T       0.00006183       0.00009126      -0.00017386
Si       3.12762329      -6.23945693      -2.48729495  T      -0.00013537       0.00002313       0.00028706
Si       2.41226052      -7.47032729      -0.51933140  T      -0.00004186      -0.00002875      -0.00027123
Si       5.23042221      -3.59846908      -4.43600599  T       0.00019427      -0.00008794      -0.00034356
Si       5.12401812      -4.95600526      -2.47738888  T      -0.00004965      -0.00003908      -0.00017585
Si      -4.37246707      -0.88700141      -2.51512849  T      -0.00011407      -0.00012804      -0.00040490
Si      -4.35938606      -2.17582106      -0.52525052  T       0.00010617      -0.00027595       0.00013949
Si      -2.38364118      -3.52972686      -4.51051629  T      -0.00063414       0.00041519      -0.00004120
Si      -2.33793965      -4.86224286      -2.52403550  T      -0.00010703      -0.00027065      -0.00012244
Si      -0.51249565      -0.65444039      -2.50442931  T       0.00014298       0.00028644       0.00012975
Si      -0.52004866      -2.00442446      -0.52429860  T      -0.00032169       0.00025694      -0.00007528
Si       1.55819324      -3.15206319      -4.47081743  T      -0.00031580       0.00015939      -0.00001131
Si       1.61326642      -4.45998897      -2.49379546  T      -0.00009166       0.00001719      -0.00040178
Si       3.51386759      -0.58533570      -2.49441832  T      -0.00029007       0.00060990      -0.00032890
Si       3.54159113      -1.94261107      -0.51777025  T       0.00006604       0.00035929      -0.00047252
Si       5.29714599       2.21132231      -4.48807865  T      -0.00020198      -0.00018378      -0.00002187
Si       5.34141495       0.89034245      -2.51508435  T       0.00006605       0.00017257      -0.00023218
Si      -4.15591978       4.95819700      -2.47815721  T       0.00009236      -0.00013323      -0.00008951
Si      -4.22677492       3.64355940      -0.49417352  T       0.00025021      -0.00000305       0.00022829
Si      -2.58151315       1.92825398      -4.47238283  T      -0.00001657      -0.00023512       0.00009228
Si      -2.54449619       0.58806411      -2.49454533  T       0.00017932      -0.00040074       0.00016733
Si      -0.64446031       4.46271271      -2.49455508  T       0.00000272       0.00038707       0.00010528
Si      -0.56709027       3.15352237      -0.51705446  T      -0.00029248      -0.00064695      -0.00024652
Si       1.47126748       2.01959023      -4.48165892  T       0.00036244      -0.00007498      -0.00014657
Si       1.48191924       0.65736879      -2.50441635  T      -0.00014294      -0.00022248      -0.00002005
Si       3.30646051       4.86603084      -2.52474917  T       0.00043498      -0.00017284       0.00019314
Si       3.38756564       3.50414468      -0.54089317  T       0.00024775      -0.00022826      -0.00032735
Si       3.05522309       8.07307828      -0.54254838  T       0.00026585       0.00008690       0.00047223
Si       4.08883804       7.08454076       1.43681563  T       0.00011996      -0.00008939      -0.00033266
Si      -3.12233950      -7.07947711       1.43720173  T       0.00069736       0.00009980      -0.00009093
Si      -2.16261085      -8.02359927       3.46962414  T       0.00021176      -0.00021198       0.00058396
Si      -1.44472682       7.47316647      -0.52022215  T       0.00000369      -0.00040675       0.00001434
Si      -2.10501856       6.25980909       1.46916367  T       0.00013134       0.00013549      -0.00013621
Si      -0.27850316      -5.80937923       1.46118333  T       0.00028834      -0.00006438      -0.00017553
Si      -0.01141662      -7.04576719       3.45656389  T      -0.00000226       0.00008772      -0.00022253
Si       0.92172469       7.06128979      -0.52099608  T      -0.00011343      -0.00037216       0.00035870
Si       1.24691641       5.81354432       1.46076011  T       0.00029623      -0.00018496      -0.00069253
Si       3.07323133      -6.25690237       1.46962281  T      -0.00062744       0.00016889      -0.00005691
Si       2.35251919      -7.47804327       3.44191414  T       0.00015193       0.00005077       0.00046093
Si       5.19543076      -3.64098857      -0.49364992  T      -0.00006418      -0.00001031      -0.00060831
Si       5.08038705      -4.99074159       1.46923575  T       0.00018855      -0.00025219       0.00030646
Si      -4.38344928      -0.84947961       1.44614786  T      -0.00026176       0.00014409      -0.00029999
Si      -4.37830789      -2.13320573       3.44077797  T       0.00032124      -0.00007744      -0.00017462
Si      -2.41862261      -3.49998202      -0.54052959  T      -0.00042201       0.00017027      -0.00016875
Si      -2.37819637      -4.82922720       1.45262765  T       0.00003670      -0.00002455       0.00010706
Si      -0.51792700      -0.64590516       1.45439405  T      -0.00006324       0.00006437      -0.00064096
Si      -0.53362192      -1.99462303       3.43573584  T      -0.00030177       0.00006941      -0.00000126
Si       1.53645758      -3.15006684      -0.51671417  T      -0.00034568      -0.00020066      -0.00017972
Si       1.57825239      -4.46100012       1.46187155  T      -0.00039495      -0.00021492      -0.00012326
Si       3.51170417      -0.60533429       1.46309936  T       0.00007692       0.00002286      -0.00033141
Si       3.52710195      -1.96279051       3.43937510  T       0.00005408       0.00000438      -0.00027571
Si       5.32823386       2.17972680      -0.52547377  T      -0.00030827      -0.00024894       0.00008112
Si       5.35253368       0.85368515       1.44621831  T      -0.00022127      -0.00023971      -0.00026603
Si      -4.11215660       4.99355494       1.46875224  T       0.00025228       0.00006709       0.00005054
Si      -4.20023370       3.67549282       3.44990041  T      -0.00005906      -0.00006115      -0.00022175
Si      -2.57216541       1.94591339      -0.51826439  T      -0.00043189      -0.00035797       0.00007867
Si      -2.54236011       0.60908610       1.46288693  T       0.00018139      -0.00020631      -0.00001398
Si      -0.60930032       4.46454298       1.46152677  T      -0.00015377      -0.00033138      -0.00008383
Si      -0.54455712       3.15958192       3.44195690  T       0.00017346       0.00001674      -0.00000413
Si       1.48946217       2.00792900      -0.52455929  T       0.00008447      -0.00014622      -0.00003670
Si       1.48730583       0.64972324       1.45437709  T      -0.00009090       0.00003187      -0.00032415
Si       3.34674299       4.83356715       1.45223327  T      -0.00013349      -0.00042005       0.00033179
Si       3.41464006       3.47275742       3.43303463  T       0.00035021      -0.00025763       0.00030521
Si       3.12966084       8.02825689       3.46985868  T      -0.00002212       0.00017186       0.00060791
Si       4.15835922       7.03147122       5.45246355  T       0.00006193      -0.00013944       0.00086402
Si      -3.19135756      -7.02705698       5.45209702  T       0.00035200      -0.00013360       0.00050583
Si      -2.27084891      -7.92810767       7.51862936  T      -0.00044219      -0.00018009       0.00020913
Si      -1.38474053       7.48109903       3.44171264  T      -0.00055155      -0.00030187       0.00056407
Si      -2.06713796       6.27477567       5.42799939  T      -0.00021844      -0.00002730      -0.00028856
Si      -0.32202819      -5.79914981       5.44230932  T       0.00047104      -0.00021000      -0.00050898
Si      -0.06172059      -7.05071678       7.43141135  T       0.00043159       0.00016157       0.00008086
Si       0.97912725       7.04932243       3.45640806  T      -0.00018558       0.00011245       0.00035297
Si       1.29014110       5.80303236       5.44236794  T      -0.00006233      -0.00051352       0.00011974
Si       3.03526105      -6.27181190       5.42795583  T      -0.00016556       0.00009447      -0.00030500
Si       2.32267389      -7.47507416       7.41150721  T       0.00046053       0.00024804      -0.00035519
Si       5.16879773      -3.67245597       3.45014494  T      -0.00000106       0.00003473      -0.00012706
Si       5.04744327      -5.01023975       5.41888192  T      -0.00039042      -0.00031294       0.00004477
Si      -4.38455294      -0.81003096       5.41425167  T      -0.00000072      -0.00039333       0.00017060
Si      -4.37245700      -2.09110973       7.41113039  T       0.00021515      -0.00035710      -0.00001180
Si      -2.44600741      -3.46822526       3.43316583  T      -0.00037413      -0.00007774       0.00010294
Si      -2.41069542      -4.79264303       5.43228380  T      -0.00014740      -0.00030465       0.00010014
Si      -0.51907926      -0.63750981       5.41192826  T      -0.00001751      -0.00013743      -0.00015876
Si      -0.52915573      -1.97938281       7.39589728  T       0.00015538       0.00012386       0.00033936
Si       1.51358307      -3.15587251       3.44211939  T      -0.00040715      -0.00046212      -0.00021504
Si       1.54961780      -4.46955870       5.42158513  T       0.00016789      -0.00027437       0.00051222
Si       3.50064548      -0.62862505       5.42405374  T       0.00026723       0.00001393       0.00000811
Si       3.50333442      -1.98317867       7.40172382  T       0.00014782      -0.00037956       0.00027020
Si       5.34671322       2.13737547       3.44090686  T      -0.00000118      -0.00024727      -0.00002069
Si       5.35307031       0.81397857       5.41431061  T       0.00008678      -0.00006726      -0.00007284
Si      -4.07914916       5.01304365       5.41884717  T       0.00018523      -0.00010948       0.00005047
Si      -4.20905482       3.66083214       7.37525745  T      -0.00001944       0.00019180       0.00032743
Si      -2.55802888       1.96637690       3.43926839  T       0.00002260      -0.00015760      -0.00036521
Si      -2.53177311       0.63207995       5.42394705  T       0.00000225      -0.00039995      -0.00022431
Si      -0.58112165       4.47285782       5.42171877  T       0.00014088      -0.00003073       0.00029401
Si      -0.52125826       3.18155550       7.41131457  T      -0.00025480       0.00019665       0.00020540
Si       1.50279307       1.99854500       3.43576462  T      -0.00035465      -0.00073630      -0.00015012
Si       1.48805712       0.64108084       5.41191100  T      -0.00036033       0.00000855      -0.00029159
Si       3.37893270       4.79659155       5.43256598  T      -0.00003372      -0.00004505      -0.00009326
Si       3.40856120       3.42975087       7.40636146  T      -0.00001442       0.00001301       0.00003712
Si       3.23829879       7.93141999       7.51982970  T      -0.00032427       0.00002521      -0.00017334
Si       4.44876648       6.81463656       9.33930866  T       0.00032794      -0.00028125       0.00013220
Si      -3.48147575      -6.81204353       9.33843143  T      -0.00007562      -0.00012564      -0.00015653
Si      -2.82022514      -7.25726730      11.63702405  T       0.00018013      -0.00008453       0.00029383
Si      -1.35516010       7.47736766       7.41222936  T      -0.00014189       0.00016288      -0.00040845
Si      -2.13379572       6.22895012       9.33877662  T      -0.00010715      -0.00001941       0.00022454
Si      -0.33451615      -5.87352895       9.45702327  T       0.00012393      -0.00002727       0.00015157
Si      -0.04166994      -7.34322912      11.31159520  T       0.00012215       0.00037231       0.00023811
Si       1.02928539       7.05363368       7.43212603  T       0.00007574      -0.00032746      -0.00032172
Si       1.30217620       5.87575173       9.45738280  T       0.00030270      -0.00023414       0.00004862
Si       3.10153227      -6.22718901       9.33826183  T       0.00005363      -0.00000789       0.00032242
Si       2.41167990      -7.26433113      11.37733166  T       0.00007826       0.00007969       0.00021391
Si       5.17734888      -3.65843486       7.37548263  T      -0.00004544      -0.00031648       0.00049869
Si       5.11293901      -4.97185752       9.35874840  T      -0.00054679       0.00017463      -0.00016791
Si      -4.36278056      -0.76145068       9.37929167  T       0.00014269       0.00007155       0.00013816
Si      -4.37486304      -2.05259797      11.36778074  T       0.00000419      -0.00037626       0.00014131
Si      -2.44026512      -3.42647526       7.40630557  T      -0.00014258      -0.00005527      -0.00031104
Si      -2.38538420      -4.76150880       9.39879504  T       0.00007970      -0.00011675       0.00002500
Si      -0.50638563      -0.64667459       9.38181102  T      -0.00007698       0.00020369       0.00015933
Si      -0.50419129      -2.02225580      11.34498682  T       0.00006313      -0.00007134      -0.00007345
Si       1.48984937      -3.17873590       7.41137021  T      -0.00033297      -0.00049782      -0.00001368
Si       1.52502989      -4.52478678       9.37551985  T      -0.00029427       0.00000185      -0.00014642
Si       3.46066735      -0.65699501       9.39322857  T      -0.00018750      -0.00001322       0.00013349
Si       3.44279359      -2.04013310      11.35162310  T      -0.00010562      -0.00044270       0.00011814
Si       5.34064845       2.09419703       7.41169028  T      -0.00033166       0.00035790      -0.00007862
Si       5.33076389       0.76365051       9.37933629  T      -0.00000427      -0.00027057       0.00009955
Si      -4.14503689       4.97348085       9.35897006  T       0.00008325      -0.00028350       0.00027514
Si      -4.28304231       3.55428152      11.27789049  T       0.00012557      -0.00021948      -0.00044527
Si      -2.53471289       1.98595793       7.40194132  T      -0.00028998      -0.00010842      -0.00022970
Si      -2.49245336       0.65888241       9.39303967  T       0.00009520      -0.00007757       0.00025483
Si      -0.55708531       4.52672733       9.37587884  T       0.00001506      -0.00024717       0.00014746
Si      -0.49228042       3.30940192      11.40554656  T      -0.00012606      -0.00005658       0.00013863
Si       1.49775813       1.98228310       7.39624741  T      -0.00020752      -0.00072527       0.00020410
Si       1.47462838       0.64856561       9.38176888  T      -0.00028923      -0.00021751      -0.00030446
Si       3.35312824       4.76380129       9.39937684  T      -0.00005483       0.00022255      -0.00003496
Si       3.41315174       3.39463897      11.36900203  T      -0.00004430      -0.00001131       0.00007890
Si       3.78745197       7.25869110      11.63808370  T      -0.00025915      -0.00008215      -0.00009770
Si       5.31929168       6.15486635      13.36592927  F      -0.64263265       0.37933449      -0.01986204
Si      -4.35214774      -6.15486635      13.36592927  F       0.64237355      -0.37876081      -0.02006891
Si      -4.35214774      -7.52261443      15.30021715  F       0.21524697       0.74867800       0.14220305
Si      -1.44452630       7.26568056      11.37823342  T       0.00047412      -0.00001678      -0.00030786
Si      -2.41785985       6.15486635      13.36592927  F       0.29272425       0.01921508       0.33193984
Si      -0.48357197      -6.15486635      13.36592927  F       0.04579069       0.18177927       0.35517447
Si      -0.48357197      -7.52261443      15.30021715  F      -0.04010683       0.07611404       0.05401311
Si       1.00900180       7.34456068      11.31250703  T      -0.00031884      -0.00006447       0.00003625
Si       1.45071591       6.15486635      13.36592927  F      -0.04581408      -0.18148702       0.35619218
Si       3.38500379      -6.15486635      13.36592927  F      -0.29243575      -0.01879619       0.33108366
Si       3.38500379      -7.52261443      15.30021715  F      -0.17589140       0.17792271       0.04537733
Si       5.25057222      -3.55350643      11.27822423  T       0.00008171      -0.00019979      -0.00013407
Si       5.31929168      -4.78711827      13.36592927  F      -0.16804358      -0.03800869      -0.04896809
Si      -4.35214774      -0.68387404      13.36592927  F       0.12524623      -0.09235774       0.20814820
Si      -4.35214774      -2.05162212      15.30021715  F       0.09375692       0.20202707      -0.04249280
Si      -2.44561655      -3.39368714      11.36918219  T      -0.00006027      -0.00035225       0.00005152
Si      -2.41785985      -4.78711827      13.36592927  F      -0.25043256      -0.12495201       0.05691747
Si      -0.48357197      -0.68387404      13.36592927  F       0.05638987       0.14076614       0.11756691
Si      -0.48357197      -2.05162212      15.30021715  F       0.05689059      -0.01517093      -0.04995644
Si       1.45990565      -3.30857398      11.40576203  T      -0.00000660      -0.00007612      -0.00028001
Si       1.45071591      -4.78711827      13.36592927  F       0.03782229       0.03454801       0.08331067
Si       3.38500379      -0.68387404      13.36592927  F       0.24226375       0.13878545       0.17390275
Si       3.38500379      -2.05162212      15.30021715  F       0.11359602      -0.05876132      -0.05165569
Si       5.34244686       2.05370401      11.36844147  T       0.00034072       0.00008355       0.00010890
Si       5.31929168       0.68387404      13.36592927  F      -0.12510120       0.09388129       0.20803590
Si      -4.35214774       4.78711827      13.36592927  F       0.16790120       0.03919254      -0.04852571
Si      -4.35214774       3.41937020      15.30021715  F       0.10785537       0.12927105      -0.04528100
Si      -2.47516178       2.04102790      11.35192758  T       0.00005575      -0.00005976      -0.00011175
Si      -2.41785985       0.68387404      13.36592927  F      -0.24206778      -0.13702980       0.17318079
Si      -0.48357197       4.78711827      13.36592927  F      -0.03748902      -0.03309752       0.08454069
Si      -0.48357197       3.41937020      15.30021715  F       0.07506405      -0.09627393       0.00467605
Si       1.47184059       2.02314560      11.34532508  T      -0.00029737      -0.00022597      -0.00000519
Si       1.45071591       0.68387404      13.36592927  F      -0.05595029      -0.13894269       0.11710284
Si       3.38500379       4.78711827      13.36592927  F       0.25085186       0.12714983       0.05903055
Si       3.38500379       3.41937020      15.30021715  F       0.11721188      -0.11001046       0.04807619
Si       5.31929168       7.52261443      15.30021715  F      -0.21505014      -0.74873432       0.14242298
Si       5.31929168       6.15486635      17.23450503  F      -0.37065110       0.71104548       0.24055821
Si      -4.35214774      -6.15486635      17.23450503  F       0.37071726      -0.71103226       0.24047010
Si      -4.35214774      -7.52261443      19.16879292  F       0.54230155       0.74161944      -1.08291517
Si      -2.41785985       7.52261443      15.30021715  F       0.17581434      -0.17803971       0.04547623
Si      -2.41785985       6.15486635      17.23450503  F      -0.02708827       0.24091201       0.16842150
Si      -0.48357197      -6.15486635      17.23450503  F       0.05574974      -0.28293023       0.10389145
Si      -0.48357197      -7.52261443      19.16879292  F       0.01650913       0.54619067      -0.75467980
Si       1.45071591       7.52261443      15.30021715  F       0.04015212      -0.07616720       0.05425071
Si       1.45071591       6.15486635      17.23450503  F      -0.05577245       0.28295138       0.10399872
Si       3.38500379      -6.15486635      17.23450503  F       0.02704680      -0.24089561       0.16836411
Si       3.38500379      -7.52261443      19.16879292  F      -0.39744854       0.57070376      -0.85896475
Si       5.31929168      -3.41937020      15.30021715  F      -0.10778532      -0.12942308      -0.04515208
Si       5.31929168      -4.78711827      17.23450503  F      -0.21383380       0.28273356       0.23080252
Si      -4.35214774      -0.68387404      17.23450503  F       0.16960113      -0.34205629       0.19941669
Si      -4.35214774      -2.05162212      19.16879292  F       0.81277584      -0.01054456      -0.79752893
Si      -2.41785985      -3.41937020      15.30021715  F      -0.11731303       0.10990660       0.04833873
Si      -2.41785985      -4.78711827      17.23450503  F      -0.12199536      -0.06522906       0.17164949
Si      -0.48357197      -0.68387404      17.23450503  F       0.11478343      -0.05072490       0.13781888
Si      -0.48357197      -2.05162212      19.16879292  F       0.08909652      -0.23444922      -0.13266863
Si       1.45071591      -3.41937020      15.30021715  F      -0.07505754       0.09624870       0.00486372
Si       1.45071591      -4.78711827      17.23450503  F      -0.12911337       0.01033813       0.22945757
Si       3.38500379      -0.68387404      17.23450503  F       0.07899878      -0.01144607       0.09553077
Si       3.38500379      -2.05162212      19.16879292  F       0.18267407      -0.32697628      -0.17297845
Si       5.31929168       2.05162212      15.30021715  F      -0.09359689      -0.20224575      -0.04230041
Si       5.31929168       0.68387404      17.23450503  F      -0.16961247       0.34212030       0.19946915
Si      -4.35214774       4.78711827      17.23450503  F       0.21378567      -0.28268712       0.23077516
Si      -4.35214774       3.41937020      19.16879292  F       0.77590905      -0.02860045      -0.78081422
Si      -2.41785985       2.05162212      15.30021715  F      -0.11356665       0.05852268      -0.05154355
Si      -2.41785985       0.68387404      17.23450503  F      -0.07901011       0.01143275       0.09555389
Si      -0.48357197       4.78711827      17.23450503  F       0.12908963      -0.01035349       0.22942590
Si      -0.48357197       3.41937020      19.16879292  F       0.08814886      -0.22156927      -0.10321916
Si       1.45071591       2.05162212      15.30021715  F      -0.05689862       0.01500079      -0.04975573
Si       1.45071591       0.68387404      17.23450503  F      -0.11479948       0.05072713       0.13782179
Si       3.38500379       4.78711827      17.23450503  F       0.12201792       0.06521200       0.17158344
Si       3.38500379       3.41937020      19.16879292  F       0.23047470      -0.30360737      -0.14922761
