360
Lattice="11.605727294873521 0.0 0.0 0.0 16.412976941613742 0.0 0.0 0.0 38.6857576495784" Properties=species:S:1:pos:R:3:move_mask:L:1:forces:R:3 energy=-1749.920879286741 free_energy=-1749.920879286741 pbc="F F F"
Si       5.31929168       7.52261443      19.16879292  F      -0.54247302      -0.74198504      -1.08677297
Si       5.31929168       6.15486635     -18.20164897  F      -0.85632703       0.15984173       1.05505858
Si      -4.35214774      -6.15486635     -18.20164897  F       0.85632699      -0.15984260       1.05505892
Si      -4.35214774      -7.52261443     -16.26736109  F       0.06873778       0.94099871      -0.22747628
Si      -2.41785985       7.52261443      19.16879292  F       0.39687547      -0.57228427      -0.86038108
Si      -2.41785985       6.15486635     -18.20164897  F      -0.11481488      -0.24246255       0.66305303
Si      -0.48357197      -6.15486635     -18.20164897  F       0.05525755       0.07853834       0.63950524
Si      -0.48357197      -7.52261443     -16.26736109  F      -0.00206541       0.36895465      -0.25695739
Si       1.45071591       7.52261443      19.16879292  F      -0.01663020      -0.54728149      -0.75628683
Si       1.45071591       6.15486635     -18.20164897  F      -0.05525700      -0.07853819       0.63950337
Si       3.38500379      -6.15486635     -18.20164897  F       0.11481475       0.24246283       0.66305279
Si       3.38500379      -7.52261443     -16.26736109  F      -0.10807016       0.43458727      -0.17799349
Si       5.31929168      -3.41937020      19.16879292  F      -0.77662195       0.02786048      -0.78286995
Si       5.31929168      -4.78711827     -18.20164897  F      -0.79960118       0.02944688       0.77102291
Si      -4.35214774      -0.68387404     -18.20164897  F       0.80488917       0.00519835       0.80153900
Si      -4.35214774      -2.05162212     -16.26736109  F       0.17636769       0.31320808      -0.19032420
Si      -2.41785985      -3.41937020      19.16879292  F      -0.23032595       0.30205697      -0.15031301
Si      -2.41785985      -4.78711827     -18.20164897  F      -0.23123855      -0.26348649       0.16370655
Si      -0.48357197      -0.68387404     -18.20164897  F       0.08815528       0.22268789       0.11464165
Si      -0.48357197      -2.05162212     -16.26736109  F       0.11602507      -0.00219629      -0.16271745
Si       1.45071591      -3.41937020      19.16879292  F      -0.08816404       0.22048831      -0.10376238
Si       1.45071591      -4.78711827     -18.20164897  F      -0.08713942      -0.07444401       0.07096629
Si       3.38500379      -0.68387404     -18.20164897  F       0.19612012       0.34445701       0.16194450
Si       3.38500379      -2.05162212     -16.26736109  F       0.06593449      -0.04738926      -0.12327518
Si       5.31929168       2.05162212      19.16879292  F      -0.81385856       0.00998430      -0.80022481
Si       5.31929168       0.68387404     -18.20164897  F      -0.80488853      -0.00519836       0.80153768
Si      -4.35214774       4.78711827     -18.20164897  F       0.79960251      -0.02944732       0.77102455
Si      -4.35214774       3.41937020     -16.26736109  F       0.15497730       0.29798395      -0.19556852
Si      -2.41785985       2.05162212      19.16879292  F      -0.18260742       0.32613682      -0.17446161
Si      -2.41785985       0.68387404     -18.20164897  F      -0.19612037      -0.34445594       0.16194494
Si      -0.48357197       4.78711827     -18.20164897  F       0.08713946       0.07444392       0.07096828
Si      -0.48357197       3.41937020     -16.26736109  F       0.11584568       0.01368152      -0.14561823
Si       1.45071591       2.05162212      19.16879292  F      -0.08891369       0.23370360      -0.13405911
Si       1.45071591       0.68387404     -18.20164897  F      -0.08815531      -0.22268745       0.11464128
Si       3.38500379       4.78711827     -18.20164897  F       0.23123861       0.26348749       0.16370862
Si       3.38500379       3.41937020     -16.26736109  F       0.10952230       0.02257506      -0.11603625
Si       5.31929168       7.52261443     -16.26736109  F      -0.06873795      -0.94099888      -0.22747458
Si       5.31929168       6.15486635     -14.33307321  F      -0.47386989       0.43839164       0.10308839
Si      -4.35214774      -6.15486635     -14.33307321  F       0.47387508      -0.43839471       0.10310089
Si      -4.35214774      -7.52261443     -12.39878533  F      -0.12459640       0.29478289      -0.61846791
Si      -2.41785985       7.52261443     -16.26736109  F       0.10806779      -0.43458694      -0.17798964
Si      -2.41785985       6.15486635     -14.33307321  F      -0.03773262      -0.10757791       0.08353757
Si      -0.48357197      -6.15486635     -14.33307321  F      -0.16054543      -0.00443660      -0.04004459
Si      -0.48357197      -7.52261443     -12.39878533  F      -0.08509969       0.35045371       0.64102085
Si       1.45071591       7.52261443     -16.26736109  F       0.00206496      -0.36895788      -0.25695177
Si       1.45071591       6.15486635     -14.33307321  F       0.16053776       0.00442718      -0.04004289
Si       3.38500379      -6.15486635     -14.33307321  F       0.03774348       0.10756897       0.08353285
Si       3.38500379      -7.52261443     -12.39878533  F      -0.16795851       0.09895259      -0.02718652
Si       5.31929168      -3.41937020     -16.26736109  F      -0.15497781      -0.29798522      -0.19557222
Si       5.31929168      -4.78711827     -14.33307321  F      -0.13660444       0.15088269       0.06885536
Si      -4.35214774      -0.68387404     -14.33307321  F       0.12225727      -0.18537751       0.06738773
Si      -4.35214774      -2.05162212     -12.39878533  F       0.11469452      -0.04264226      -0.10030942
Si      -2.41785985      -3.41937020     -16.26736109  F      -0.10952404      -0.02257467      -0.11603972
Si      -2.41785985      -4.78711827     -14.33307321  F      -0.19424720      -0.16570833       0.21167049
Si      -0.48357197      -0.68387404     -14.33307321  F       0.08695319      -0.00224638       0.06282183
Si      -0.48357197      -2.05162212     -12.39878533  F       0.06492784       0.02004314       0.03203650
Si       1.45071591      -3.41937020     -16.26736109  F      -0.11584804      -0.01368117      -0.14562094
Si       1.45071591      -4.78711827     -14.33307321  F      -0.04095877      -0.13768571       0.11638474
Si       3.38500379      -0.68387404     -14.33307321  F       0.13841559       0.07654081       0.07456910
Si       3.38500379      -2.05162212     -12.39878533  F       0.15715788       0.05354655      -0.07750961
Si       5.31929168       2.05162212     -16.26736109  F      -0.17636791      -0.31321076      -0.19032544
Si       5.31929168       0.68387404     -14.33307321  F      -0.12225012       0.18539161       0.06737477
Si      -4.35214774       4.78711827     -14.33307321  F       0.13661745      -0.15087455       0.06885685
Si      -4.35214774       3.41937020     -12.39878533  F       0.10957213       0.11962849       0.09493165
Si      -2.41785985       2.05162212     -16.26736109  F      -0.06593450       0.04739159      -0.12327448
Si      -2.41785985       0.68387404     -14.33307321  F      -0.13841028      -0.07653565       0.07457198
Si      -0.48357197       4.78711827     -14.33307321  F       0.04096381       0.13769461       0.11639220
Si      -0.48357197       3.41937020     -12.39878533  F      -0.11731257      -0.48600056      -0.30442760
Si       1.45071591       2.05162212     -16.26736109  F      -0.11602671       0.00219775      -0.16271666
Si       1.45071591       0.68387404     -14.33307321  F      -0.08695312       0.00225208       0.06281673
Si       3.38500379       4.78711827     -14.33307321  F       0.19424573       0.16572263       0.21167379
Si       3.38500379       3.41937020     -12.39878533  F       0.02471965       0.04802992      -0.12627581
Si       5.31929168       7.52261443     -12.39878533  F       0.12455968      -0.29481700      -0.61844719
Si       3.48673157       7.12896710     -11.03777760  T      -0.00080907       0.00003885      -0.00020484
Si      -2.51956615      -7.12900885     -11.03780135  T       0.00080166      -0.00005172      -0.00021055
Si      -1.95849263      -7.99499930      -8.74011650  T       0.00000790      -0.00001058       0.00016438
Si      -2.41785985       7.52261443     -12.39878533  F       0.16797198      -0.09900633      -0.02710203
Si      -2.46759467       6.16846253     -10.46077409  T       0.00073850      -0.00074998       0.00073047
Si      -0.08699334      -5.98273326     -10.60870857  T      -0.00033834       0.00002907      -0.00022319
Si       0.19173225      -7.02715043      -8.53004905  T      -0.00035341      -0.00037035      -0.00049620
Si       1.45071591       7.52261443     -12.39878533  F       0.08518193      -0.35055584       0.64118977
Si       1.05419178       5.98270392     -10.60868984  T       0.00036260      -0.00002787      -0.00022149
Si       3.43480826      -6.16846005     -10.46079757  T      -0.00072802       0.00075152       0.00073181
Si       2.59578199      -7.32440121      -8.48951142  T      -0.00038131      -0.00033685       0.00006161
Si       5.31929168      -3.41937020     -12.39878533  F      -0.10952977      -0.11960739       0.09483315
Si       5.32039284      -4.74571240     -10.41123404  T       0.00043548       0.00007552       0.00044630
Si      -4.31684005      -0.79530934     -10.42495865  T       0.00001977      -0.00097561       0.00021994
Si      -4.26961497      -2.15125494      -8.50399110  T      -0.00011965       0.00044465      -0.00000359
Si      -2.41785985      -3.41937020     -12.39878533  F      -0.02468936      -0.04811842      -0.12627466
Si      -2.14078870      -4.83122157     -10.52070617  T       0.00029507       0.00042994       0.00013069
Si      -0.48554600      -0.67728823     -10.45157990  T       0.00025012      -0.00024395      -0.00025830
Si      -0.48215649      -2.02174411      -8.48956447  T       0.00005903       0.00050085       0.00018421
Si       1.45071591      -3.41937020     -12.39878533  F       0.11733451       0.48599006      -0.30449799
Si       1.72232066      -4.58842825     -10.42346460  T       0.00052205      -0.00009090       0.00028724
Si       3.42868604      -0.64670685     -10.46497277  T      -0.00014866       0.00038837       0.00019257
Si       3.50846212      -1.92544689      -8.46622619  T       0.00009112       0.00046941      -0.00010789
Si       5.31929168       2.05162212     -12.39878533  F      -0.11468884       0.04258497      -0.10033906
Si       5.28400820       0.79524982     -10.42499480  T      -0.00005632       0.00091238       0.00019718
Si      -4.35316196       4.74569094     -10.41120341  T      -0.00044927      -0.00009205       0.00045561
Si      -4.29045362       3.51303151      -8.40577923  T       0.00042925       0.00078400       0.00003763
Si      -2.41785985       2.05162212     -12.39878533  F      -0.15718014      -0.05363498      -0.07744826
Si      -2.46154605       0.64667780     -10.46496638  T       0.00019788      -0.00034631       0.00019469
Si      -0.75513097       4.58839900     -10.42343358  T      -0.00054256       0.00008727       0.00028564
Si      -0.58663284       3.21444829      -8.48859571  T       0.00061023      -0.00035199       0.00038360
Si       1.45071591       2.05162212     -12.39878533  F      -0.06494727      -0.02011759       0.03205872
Si       1.45268214       0.67724930     -10.45159099  T      -0.00024824       0.00024472      -0.00026976
Si       3.10797531       4.83117107     -10.52067693  T      -0.00031778      -0.00038043       0.00012681
Si       3.31918774       3.52501107      -8.52398985  T       0.00054485      -0.00072814       0.00014857
Si       2.92578996       7.99480198      -8.73999899  T      -0.00003204       0.00002056       0.00015836
Si       3.85919991       7.11246177      -6.62981190  T      -0.00092626      -0.00022746       0.00075067
Si      -2.89181618      -7.11273458      -6.62987374  T       0.00088298       0.00013341       0.00076352
Si      -1.99928817      -8.03509256      -4.55923750  T       0.00022936      -0.00027858       0.00018417
Si      -1.62850027       7.32432160      -8.48944195  T       0.00036785       0.00033238       0.00006198
Si      -2.22026557       6.16857235      -6.47455074  T       0.00061609       0.00038168       0.00010573
Si      -0.21410053      -5.82531276      -6.54071731  T      -0.00046971      -0.00002186       0.00066498
Si       0.09767529      -6.96504616      -4.51723326  T      -0.00021330       0.00057081       0.00043419
Si       0.77553518       7.02701726      -8.52996248  T       0.00034172       0.00039277      -0.00052666
Si       1.18132996       5.82510876      -6.54066129  T       0.00071719      -0.00000639       0.00065612
Si       3.18754826      -6.16863257      -6.47463464  T      -0.00062115      -0.00039390       0.00011047
Si       2.45748847      -7.36522449      -4.50710926  T      -0.00019131      -0.00022763      -0.00011102
Si       5.25767198      -3.51304158      -8.40582671  T      -0.00045440      -0.00075917       0.00004668
Si       5.16519486      -4.86468141      -6.45952331  T       0.00045572       0.00036566       0.00014993
Si      -4.32366184      -0.90130571      -6.51064843  T       0.00079129      -0.00000196      -0.00008059
Si      -4.30879376      -2.16172476      -4.52320548  T      -0.00042309       0.00019384       0.00051412
Si      -2.35202092      -3.52513943      -8.52398705  T      -0.00045479       0.00059571       0.00021234
Si      -2.30931859      -4.81837872      -6.53925060  T      -0.00071040      -0.00055421       0.00043191
Si      -0.49609405      -0.67397539      -6.50950570  T       0.00090782       0.00030381      -0.00015964
Si      -0.50389127      -1.98633404      -4.51867378  T      -0.00064951      -0.00000761       0.00028532
Si       1.55378923      -3.21452767      -8.48862151  T      -0.00057586       0.00037864       0.00036589
Si       1.62113403      -4.43963766      -6.48072679  T      -0.00028397      -0.00086458       0.00010357
Si       3.47863765      -0.58986150      -6.49871352  T       0.00056717       0.00005804      -0.00019846
Si       3.53105010      -1.90250269      -4.50939772  T      -0.00037037       0.00043916       0.00006053
Si       5.23679616       2.15112921      -8.50399692  T       0.00004811      -0.00032214      -0.00000904
Si       5.29085080       0.90111601      -6.51069870  T      -0.00089219      -0.00016770      -0.00009786
Si      -4.19791392       4.86462365      -6.45943929  T      -0.00047163      -0.00039296       0.00014565
Si      -4.22509084       3.58957349      -4.46960010  T       0.00022584       0.00038074      -0.00028309
Si      -2.54130860       1.92537057      -8.46618734  T      -0.00009412      -0.00055084      -0.00009108
Si      -2.51150155       0.58971727      -6.49869069  T      -0.00042649       0.00008186      -0.00020957
Si      -0.65393606       4.43950174      -6.48066203  T       0.00019371       0.00078777       0.00008994
Si      -0.57770825       3.13917356      -4.50841026  T       0.00008927       0.00011064       0.00001745
Si       1.44930086       2.02164399      -8.48954956  T      -0.00005706      -0.00049131       0.00019141
Si       1.46322842       0.67381771      -6.50951644  T      -0.00090789      -0.00030711      -0.00016988
Si       3.27654506       4.81813804      -6.53921328  T       0.00058628       0.00085185       0.00045906
Si       3.34702037       3.50031442      -4.54235521  T       0.00058675      -0.00037170       0.00004943
Si       2.96674544       8.03471640      -4.55911558  T      -0.00028026       0.00029861       0.00017090
Si       3.98765750       7.06195470      -2.58044586  T      -0.00044301      -0.00021495       0.00083355
Si      -3.02012681      -7.06242106      -2.58047444  T       0.00036408       0.00011198       0.00084120
Si      -2.08785855      -7.98163857      -0.54405084  T       0.00030138      -0.00024447      -0.00010222
Si      -1.49009394       7.36509872      -4.50701619  T       0.00017784       0.00022871      -0.00012357
Si      -2.13631248       6.19258186      -2.50677249  T       0.00040152       0.00014043      -0.00005097
Si      -0.25073074      -5.76257587      -2.53270355  T       0.00079958      -0.00006872       0.00054410
Si       0.02660819      -6.94153927      -0.52738211  T       0.00011781      -0.00026451       0.00015666
Si       0.86970381       6.96480818      -4.51714238  T       0.00018302      -0.00050334       0.00040470
Si       1.21800463       5.76224550      -2.53265926  T      -0.00027822       0.00004594       0.00054149
Si       3.10367853      -6.19269863      -2.50685364  T      -0.00041948      -0.00015435      -0.00003696
Si       2.37959856      -7.37297669      -0.52828113  T       0.00025226       0.00041459       0.00037630
Si       5.19235167      -3.58965919      -4.46966939  T      -0.00025375      -0.00034658      -0.00027412
Si       5.08957541      -4.90079865      -2.49794985  T       0.00068369       0.00041906       0.00046291
Si      -4.35078723      -0.88325378      -2.54040750  T      -0.00007383      -0.00050980       0.00016993
Si      -4.34279785      -2.12637525      -0.53928442  T      -0.00010453       0.00042910      -0.00067502
Si      -2.37981920      -3.50061134      -4.54235526  T      -0.00040120       0.00012878       0.00011701
Si      -2.35180092      -4.78773116      -2.54449104  T      -0.00108296       0.00033633       0.00041910
Si      -0.50995576      -0.65723988      -2.53052950  T      -0.00010714      -0.00041035       0.00033583
Si      -0.52139533      -1.97059613      -0.53795676  T       0.00010561       0.00002381      -0.00000198
Si       1.54487590      -3.13937172      -4.50844808  T      -0.00000527      -0.00004117       0.00000337
Si       1.59979345      -4.40336685      -2.51691956  T      -0.00074488      -0.00016854       0.00067404
Si       3.49789254      -0.59881570      -2.52185733  T       0.00001640      -0.00008420       0.00068213
Si       3.52657534      -1.91379533      -0.53110622  T      -0.00083273      -0.00069745       0.00047370
Si       5.27602911       2.16144477      -4.52321762  T       0.00026670       0.00004104       0.00050643
Si       5.31800813       0.88292921      -2.54045852  T      -0.00005688       0.00028227       0.00016186
Si      -4.12221473       4.90068471      -2.49786959  T      -0.00070632      -0.00044168       0.00046447
Si      -4.19262960       3.62798318      -0.50580192  T       0.00071494      -0.00025227      -0.00018949
Si      -2.56388735       1.90232279      -4.50934711  T       0.00034815      -0.00057548       0.00007801
Si      -2.53074728       0.59855911      -2.52182882  T       0.00017298       0.00028570       0.00067198
Si      -0.63255798       4.40314227      -2.51686365  T       0.00054300      -0.00000810       0.00067104
Si      -0.55950583       3.12868169      -0.53020643  T       0.00084701       0.00018996       0.00020519
Si       1.47104269       1.98610322      -4.51865703  T       0.00065166       0.00002933       0.00029458
Si       1.47709739       0.65696186      -2.53053864  T       0.00011465       0.00042102       0.00032362
Si       3.31907788       4.78733121      -2.54446917  T       0.00083282       0.00012962       0.00044409
Si       3.38306884       3.46474490      -0.55238911  T       0.00029598      -0.00059311      -0.00000350
Si       3.05543534       7.98113147      -0.54400910  T      -0.00036555       0.00027833      -0.00011777
Si       4.06389477       7.01107415       1.43708425  T       0.00025948      -0.00020826       0.00027149
Si      -3.09626938      -7.01163354       1.43711974  T      -0.00034840       0.00010948       0.00027501
Si      -2.16393720      -7.93389393       3.47105960  T       0.00008139       0.00009285       0.00001099
Si      -1.41210764       7.37281087      -0.52821954  T      -0.00027620      -0.00041061       0.00036789
Si      -2.08181913       6.20775243       1.46837315  T       0.00064014      -0.00044907      -0.00035552
Si      -0.29796398      -5.74067262       1.46070573  T      -0.00070886      -0.00021087      -0.00016294
Si      -0.03131449      -6.92771620       3.46303879  T      -0.00008324       0.00002006      -0.00002646
Si       0.94086352       6.94122357      -0.52733366  T      -0.00016272       0.00035372       0.00014147
Si       1.26529526       5.74028164       1.46071592  T       0.00120559       0.00017850      -0.00016596
Si       3.04924842      -6.20790153       1.46833612  T      -0.00065857       0.00044200      -0.00034541
Si       2.31851279      -7.38018499       3.44918051  T      -0.00061676      -0.00021598       0.00013182
Si       5.15994158      -3.62812200      -0.50586018  T      -0.00074603       0.00029260      -0.00018669
Si       5.04609395      -4.93321160       1.46920498  T       0.00040968       0.00030658       0.00025067
Si      -4.36449030      -0.84611389       1.44518868  T      -0.00012758       0.00024645       0.00062352
Si      -4.36188756      -2.08265833       3.45180389  T       0.00025953       0.00016477      -0.00007367
Si      -2.41582645      -3.46516328      -0.55237712  T      -0.00006100       0.00030776       0.00002384
Si      -2.39124065      -4.74990603       1.45066814  T      -0.00039488      -0.00004874       0.00047047
Si      -0.51562602      -0.64852135       1.45358156  T      -0.00047533       0.00005262      -0.00010562
Si      -0.53429329      -1.95982813       3.44765181  T      -0.00061774      -0.00035510       0.00029085
Si       1.52670403      -3.12896267      -0.53023403  T      -0.00074117      -0.00010056       0.00021458
Si       1.56675611      -4.40061493       1.46049547  T       0.00013864       0.00018692      -0.00022319
Si       3.49740760      -0.61744902       1.46164854  T      -0.00006888      -0.00077826       0.00024662
Si       3.51203096      -1.93379281       3.45154451  T      -0.00056851      -0.00046251      -0.00013582
Si       5.31008353       2.12598009      -0.53931038  T      -0.00008732      -0.00013633      -0.00066731
Si       5.33175126       0.84572439       1.44515419  T      -0.00001552      -0.00047435       0.00061751
Si      -4.07867850       4.93307622       1.46924936  T      -0.00043319      -0.00032758       0.00024469
Si      -4.16495802       3.66000000       3.46086997  T       0.00075695      -0.00027735       0.00048832
Si      -2.55938492       1.91354001      -0.53106706  T       0.00080018       0.00054671       0.00048521
Si      -2.53023256       0.61714165       1.46167349  T       0.00026720       0.00099360       0.00023053
Si      -0.59947605       4.40034591       1.46051513  T      -0.00032979      -0.00034338      -0.00022512
Si      -0.53656092       3.13442641       3.45270047  T       0.00061264      -0.00016257       0.00012615
Si       1.48857127       1.97026997      -0.53795200  T      -0.00010843       0.00001065       0.00000091
Si       1.48279686       0.64819008       1.45357560  T       0.00048604      -0.00004165      -0.00011374
Si       3.35856731       4.74943271       1.45065158  T       0.00015173       0.00053592       0.00048801
Si       3.41037766       3.43109334       3.44236300  T       0.00073577      -0.00089059       0.00007578
Si       3.13156391       7.93337117       3.47097853  T      -0.00014498      -0.00005559       0.00001240
Si       4.14081766       6.95798004       5.45372416  T      -0.00017556      -0.00009214       0.00030307
Si      -3.17318220      -6.95848769       5.45383781  T       0.00008064      -0.00000470       0.00030326
Si      -2.28110228      -7.84193731       7.51656412  T       0.00010670      -0.00042720      -0.00018296
Si      -1.35096984       7.38001863       3.44917456  T       0.00058921       0.00022553       0.00012293
Si      -2.04078974       6.22668834       5.44550213  T       0.00020522      -0.00013758       0.00017332
Si      -0.34209398      -5.73316965       5.45859752  T       0.00064347      -0.00000243      -0.00013082
Si      -0.08735407      -6.94012897       7.45320753  T       0.00053589       0.00025200       0.00009900
Si       0.99883588       6.92739298       3.46301958  T       0.00003476       0.00006876      -0.00003259
Si       1.30945112       5.73281730       5.45856896  T      -0.00012560      -0.00002617      -0.00013533
Si       3.00824552      -6.22680265       5.44551875  T      -0.00022712       0.00012492       0.00017519
Si       2.28077683      -7.38747627       7.43112560  T       0.00002186       0.00006819       0.00068573
Si       5.13230881      -3.66013903       3.46083988  T      -0.00079040       0.00032187       0.00049570
Si       5.01024795      -4.95601386       5.43897106  T       0.00007741       0.00017849       0.00007654
Si      -4.36357701      -0.80536824       5.43853652  T      -0.00028079      -0.00048101      -0.00009832
Si      -4.35530842      -2.04344753       7.44401848  T      -0.00049140       0.00032840      -0.00019063
Si      -2.44309217      -3.43152597       3.44238712  T      -0.00050350       0.00059725       0.00009887
Si      -2.42311523      -4.71472657       5.44844513  T      -0.00086596       0.00097138      -0.00030448
Si      -0.51638737      -0.64115719       5.43870019  T      -0.00010266       0.00047683       0.00010826
Si      -0.53016090      -1.94762371       7.43481256  T       0.00018559      -0.00023935      -0.00026107
Si       1.50379696      -3.13471460       3.45269518  T      -0.00050491       0.00025528       0.00013356
Si       1.53722916      -4.41149835       5.44321004  T      -0.00048358      -0.00073412      -0.00011990
Si       3.48481056      -0.64225723       5.44955065  T       0.00007209       0.00015368      -0.00045375
Si       3.48579256      -1.95955712       7.43868331  T      -0.00071232       0.00019364       0.00013743
Si       5.32921567       2.08224644       3.45177128  T      -0.00045973       0.00013444      -0.00006565
Si       5.33086744       0.80502217       5.43853242  T       0.00013837       0.00027034      -0.00010059
Si      -4.04280589       4.95591393       5.43896448  T      -0.00009947      -0.00019357       0.00007020
Si      -4.17242487       3.65120390       7.40821436  T      -0.00032720       0.00003137      -0.00042590
Si      -2.54480524       1.93353479       3.45155562  T       0.00053111       0.00032081      -0.00012922
Si      -2.51760335       0.64199398       5.44956450  T       0.00011829       0.00004974      -0.00045435
Si      -0.56991900       4.41126787       5.44318595  T       0.00026725       0.00057547      -0.00011673
Si      -0.51052971       3.16461240       7.44760649  T       0.00035581      -0.00003508       0.00063645
Si       1.50150787       1.95949533       3.44763807  T       0.00060574       0.00039877       0.00029626
Si       1.48359354       0.64087547       5.43870117  T       0.00009987      -0.00046269       0.00010556
Si       3.39047306       4.71430136       5.44838645  T       0.00061662      -0.00048469      -0.00028557
Si       3.40620933       3.39513235       7.43702583  T       0.00052852      -0.00043485       0.00008240
Si       3.24868964       7.84153088       7.51636357  T      -0.00016445       0.00046199      -0.00017671
Si       4.45163279       6.76193005       9.34408956  T      -0.00015035       0.00028031      -0.00005994
Si      -3.48407763      -6.76224839       9.34426997  T       0.00004762      -0.00038882      -0.00008364
Si      -2.83270510      -7.19593567      11.62033443  T      -0.00005957       0.00000663       0.00075186
Si      -1.31323858       7.38735257       7.43107569  T      -0.00005225      -0.00005592       0.00069030
Si      -2.10646549       6.19798631       9.37102634  T       0.00047249       0.00018304       0.00047623
Si      -0.36340950      -5.82191294       9.48784136  T      -0.00035179      -0.00014957      -0.00018210
Si      -0.09919429      -7.26860376      11.34338158  T       0.00035402       0.00013632       0.00032813
Si       1.05487111       6.93987337       7.45313102  T      -0.00056774      -0.00018500       0.00012268
Si       1.33078571       5.82169982       9.48779583  T       0.00058818       0.00012451      -0.00018695
Si       3.07387994      -6.19801164       9.37105791  T      -0.00046882      -0.00019956       0.00047840
Si       2.36268520      -7.16408482      11.41485707  T      -0.00023195       0.00003248      -0.00009227
Si       5.13977840      -3.65126926       7.40821428  T       0.00030336       0.00000430      -0.00042311
Si       5.07453070      -4.93181590       9.39334172  T       0.00020658      -0.00023990       0.00010448
Si      -4.33476461      -0.76370468       9.42640163  T      -0.00061971      -0.00080728       0.00026201
Si      -4.34636637      -2.01653933      11.41821095  T       0.00007790      -0.00015692       0.00005585
Si      -2.43890560      -3.39545051       7.43705432  T      -0.00034865       0.00018387       0.00007464
Si      -2.40524901      -4.70170928       9.42990140  T       0.00024934      -0.00009017      -0.00032100
Si      -0.50499399      -0.65133401       9.43429360  T      -0.00046056       0.00038154      -0.00035565
Si      -0.50728559      -2.00710104      11.40407872  T      -0.00016861       0.00002403       0.00007815
Si       1.47778832      -3.16480450       7.44761207  T      -0.00027753       0.00009789       0.00066439
Si       1.50787942      -4.48503307       9.41952247  T       0.00122323      -0.00027362      -0.00007708
Si       3.44612724      -0.67400092       9.44187712  T      -0.00006148      -0.00053179       0.00006989
Si       3.43155735      -2.02552353      11.41121014  T       0.00034055      -0.00045751       0.00032753
Si       5.32263491       2.04313279       7.44399020  T       0.00032643      -0.00008050      -0.00017467
Si       5.30201496       0.76352563       9.42644315  T       0.00052743       0.00066558       0.00026516
Si      -4.10712772       4.93179762       9.39331061  T      -0.00022878       0.00022455       0.00010338
Si      -4.24445543       3.57697800      11.33864063  T      -0.00031514      -0.00004618      -0.00071467
Si      -2.51854501       1.95938691       7.43866605  T       0.00067759      -0.00029917       0.00012328
Si      -2.47892251       0.67386663       9.44187605  T       0.00017598       0.00065730       0.00006389
Si      -0.54056885       4.48492036       9.41948972  T      -0.00134862       0.00022768      -0.00006990
Si      -0.48489513       3.31069590      11.46115635  T       0.00053679       0.00049289       0.00070833
Si       1.49739929       1.94739275       7.43478754  T      -0.00019916       0.00028005      -0.00025979
Si       1.47220177       0.65119502       9.43430304  T       0.00045908      -0.00037359      -0.00035182
Si       3.37261294       4.70146882       9.42981364  T      -0.00032472       0.00044072      -0.00031000
Si       3.41001144       3.39937855      11.43016675  T       0.00038474      -0.00013409      -0.00004463
Si       3.79999255       7.19580725      11.62001342  T       0.00004667       0.00000604       0.00076137
Si       5.31929168       6.15486635      13.36592927  F      -0.69071812       0.38128136      -0.09068345
Si      -4.35214774      -6.15486635      13.36592927  F       0.69054677      -0.38130138      -0.09053376
Si      -4.35214774      -7.52261443      15.30021715  F       0.22395094       0.74456668       0.12234970
Si      -1.39516762       7.16388452      11.41487534  T       0.00021560      -0.00001721      -0.00009767
Si      -2.41785985       6.15486635      13.36592927  F       0.29846549       0.02142816       0.23042682
Si      -0.48357197      -6.15486635      13.36592927  F       0.04948472       0.25731466       0.28159983
Si      -0.48357197      -7.52261443      15.30021715  F      -0.03501072       0.06656867       0.03879761
Si       1.06688228       7.26852792      11.34327561  T      -0.00039533      -0.00011702       0.00035575
Si       1.45071591       6.15486635      13.36592927  F      -0.04950092      -0.25772687       0.28178328
Si       3.38500379      -6.15486635      13.36592927  F      -0.29833576      -0.02127689       0.23048052
Si       3.38500379      -7.52261443      15.30021715  F      -0.18970611       0.17244125       0.03116417
Si       5.21171479      -3.57696079      11.33866193  T       0.00029921       0.00006317      -0.00071776
Si       5.31929168      -4.78711827      13.36592927  F      -0.21259587      -0.00395415      -0.19814518
Si      -4.35214774      -0.68387404      13.36592927  F       0.14444812      -0.10100396       0.07114589
Si      -4.35214774      -2.05162212      15.30021715  F       0.10147224       0.18497069      -0.05579174
Si      -2.44280006      -3.39943862      11.43016267  T      -0.00031368       0.00002461      -0.00009583
Si      -2.41785985      -4.78711827      13.36592927  F      -0.24228528      -0.07538556      -0.06527303
Si      -0.48357197      -0.68387404      13.36592927  F       0.05770478       0.10648527      -0.01606847
Si      -0.48357197      -2.05162212      15.30021715  F       0.05863120      -0.02752356      -0.05818109
Si       1.45210329      -3.31074956      11.46115513  T      -0.00051496      -0.00047847       0.00071952
Si       1.45071591      -4.78711827      13.36592927  F       0.02317615       0.06190109      -0.06854811
Si       3.38500379      -0.68387404      13.36592927  F       0.23549038       0.09548585       0.05412504
Si       3.38500379      -2.05162212      15.30021715  F       0.11084230      -0.06913442      -0.06413095
Si       5.31357416       2.01646044      11.41818917  T      -0.00014266       0.00025935       0.00008245
Si       5.31929168       0.68387404      13.36592927  F      -0.14441025       0.10083102       0.07128899
Si      -4.35214774       4.78711827      13.36592927  F       0.21272112       0.00387799      -0.19827691
Si      -4.35214774       3.41937020      15.30021715  F       0.11104766       0.11415003      -0.05708387
Si      -2.46435815       2.02547345      11.41118376  T      -0.00034722       0.00041368       0.00030694
Si      -2.41785985       0.68387404      13.36592927  F      -0.23544257      -0.09554288       0.05411172
Si      -0.48357197       4.78711827      13.36592927  F      -0.02314969      -0.06191749      -0.06872935
Si      -0.48357197       3.41937020      15.30021715  F       0.07469653      -0.11130538       0.00618963
Si       1.47448901       2.00704228      11.40405818  T       0.00015989      -0.00001275       0.00007579
Si       1.45071591       0.68387404      13.36592927  F      -0.05766136      -0.10659314      -0.01603257
Si       3.38500379       4.78711827      13.36592927  F       0.24233755       0.07533562      -0.06527260
Si       3.38500379       3.41937020      15.30021715  F       0.12101577      -0.12566875       0.03684359
Si       5.31929168       7.52261443      15.30021715  F      -0.22396269      -0.74453374       0.12230933
Si       5.31929168       6.15486635      17.23450503  F      -0.37609032       0.70983593       0.23261049
Si      -4.35214774      -6.15486635      17.23450503  F       0.37608294      -0.70983882       0.23262176
Si      -4.35214774      -7.52261443      19.16879292  F       0.54247237       0.74198519      -1.08676352
Si      -2.41785985       7.52261443      15.30021715  F       0.18974153      -0.17250914       0.03112187
Si      -2.41785985       6.15486635      17.23450503  F      -0.02650939       0.23761308       0.16390948
Si      -0.48357197      -6.15486635      17.23450503  F       0.05284211      -0.27779989       0.09218640
Si      -0.48357197      -7.52261443      19.16879292  F       0.01663183       0.54728032      -0.75628812
Si       1.45071591       7.52261443      15.30021715  F       0.03501273      -0.06654861       0.03879601
Si       1.45071591       6.15486635      17.23450503  F      -0.05284307       0.27779807       0.09215930
Si       3.38500379      -6.15486635      17.23450503  F       0.02650630      -0.23760632       0.16389384
Si       3.38500379      -7.52261443      19.16879292  F      -0.39687731       0.57228131      -0.86037765
Si       5.31929168      -3.41937020      15.30021715  F      -0.11104382      -0.11416107      -0.05709093
Si       5.31929168      -4.78711827      17.23450503  F      -0.21814134       0.27923779       0.22546170
Si      -4.35214774      -0.68387404      17.23450503  F       0.17213997      -0.33768643       0.19343213
Si      -4.35214774      -2.05162212      19.16879292  F       0.81385850      -0.00998489      -0.80022175
Si      -2.41785985      -3.41937020      15.30021715  F      -0.12100168       0.12566208       0.03687289
Si      -2.41785985      -4.78711827      17.23450503  F      -0.12015382      -0.06887485       0.16854160
Si      -0.48357197      -0.68387404      17.23450503  F       0.11352006      -0.04845095       0.13425135
Si      -0.48357197      -2.05162212      19.16879292  F       0.08891491      -0.23370369      -0.13405856
Si       1.45071591      -3.41937020      15.30021715  F      -0.07468990       0.11131273       0.00615503
Si       1.45071591      -4.78711827      17.23450503  F      -0.12821640       0.00851601       0.22767373
Si       3.38500379      -0.68387404      17.23450503  F       0.07847206      -0.00853805       0.09229001
Si       3.38500379      -2.05162212      19.16879292  F       0.18260605      -0.32613642      -0.17446085
Si       5.31929168       2.05162212      15.30021715  F      -0.10146935      -0.18495274      -0.05580158
Si       5.31929168       0.68387404      17.23450503  F      -0.17214031       0.33768103       0.19343248
Si      -4.35214774       4.78711827      17.23450503  F       0.21814783      -0.27923720       0.22545808
Si      -4.35214774       3.41937020      19.16879292  F       0.77662209      -0.02785962      -0.78287052
Si      -2.41785985       2.05162212      15.30021715  F      -0.11083839       0.06914118      -0.06413626
Si      -2.41785985       0.68387404      17.23450503  F      -0.07847404       0.00853956       0.09228618
Si      -0.48357197       4.78711827      17.23450503  F       0.12821484      -0.00851770       0.22768337
Si      -0.48357197       3.41937020      19.16879292  F       0.08816281      -0.22048442      -0.10376278
Si       1.45071591       2.05162212      15.30021715  F      -0.05863757       0.02753647      -0.05818681
Si       1.45071591       0.68387404      17.23450503  F      -0.11352079       0.04844922       0.13425352
Si       3.38500379       4.78711827      17.23450503  F       0.12014965       0.06888015       0.16854620
Si       3.38500379       3.41937020      19.16879292  F       0.23032551      -0.30205354      -0.15031407
