360
Lattice="11.605727294873521 0.0 0.0 0.0 16.412976941613742 0.0 0.0 0.0 38.6857576495784" Properties=species:S:1:pos:R:3:move_mask:L:1:forces:R:3 energy=-1742.0807277192778 free_energy=-1742.0807277192778 pbc="F F F"
Si       5.31929168       7.52261443      20.09725110  F      -0.53674218      -0.74939934      -1.09892884
Si       5.31929168       6.15486635     -19.13010716  F      -0.85529184       0.16201849       1.05118262
Si      -4.35214774      -6.15486635     -19.13010716  F       0.85529183      -0.16201850       1.05118253
Si      -4.35214774      -7.52261443     -17.19581928  F       0.06725493       0.94577384      -0.23717367
Si      -2.41785985       7.52261443      20.09725110  F       0.39378402      -0.57398428      -0.84281373
Si      -2.41785985       6.15486635     -19.13010716  F      -0.11427439      -0.24270098       0.66021590
Si      -0.48357197      -6.15486635     -19.13010716  F       0.05771763       0.07448702       0.63627781
Si      -0.48357197      -7.52261443     -17.19581928  F      -0.00331167       0.37316045      -0.27710000
Si       1.45071591       7.52261443      20.09725110  F      -0.01349439      -0.55009758      -0.75981435
Si       1.45071591       6.15486635     -19.13010716  F      -0.05771764      -0.07448701       0.63627786
Si       3.38500379      -6.15486635     -19.13010716  F       0.11427442       0.24270100       0.66021593
Si       3.38500379      -7.52261443     -17.19581928  F      -0.10939556       0.44017568      -0.19401873
Si       5.31929168      -3.41937020      20.09725110  F      -0.77326269       0.02866425      -0.78095280
Si       5.31929168      -4.78711827     -19.13010716  F      -0.79537437       0.02668533       0.76097356
Si      -4.35214774      -0.68387404     -19.13010716  F       0.80235873       0.00794085       0.79381055
Si      -4.35214774      -2.05162212     -17.19581928  F       0.16896004       0.31396177      -0.19748223
Si      -2.41785985      -3.41937020      20.09725110  F      -0.23058044       0.29581537      -0.15032305
Si      -2.41785985      -4.78711827     -19.13010716  F      -0.23323863      -0.26480037       0.15382788
Si      -0.48357197      -0.68387404     -19.13010716  F       0.08827024       0.22476158       0.11149637
Si      -0.48357197      -2.05162212     -17.19581928  F       0.11717700       0.00276518      -0.17267146
Si       1.45071591      -3.41937020      20.09725110  F      -0.09093954       0.22282060      -0.09771208
Si       1.45071591      -4.78711827     -19.13010716  F      -0.08752964      -0.07705536       0.06461046
Si       3.38500379      -0.68387404     -19.13010716  F       0.19600101       0.34635388       0.15574799
Si       3.38500379      -2.05162212     -17.19581928  F       0.06662256      -0.03990059      -0.13807189
Si       5.31929168       2.05162212      20.09725110  F      -0.81096315       0.01336734      -0.79525819
Si       5.31929168       0.68387404     -19.13010716  F      -0.80235875      -0.00794099       0.79381068
Si      -4.35214774       4.78711827     -19.13010716  F       0.79537436      -0.02668538       0.76097358
Si      -4.35214774       3.41937020     -17.19581928  F       0.15137234       0.29899238      -0.20658517
Si      -2.41785985       2.05162212      20.09725110  F      -0.18319155       0.32906790      -0.16977159
Si      -2.41785985       0.68387404     -19.13010716  F      -0.19600091      -0.34635371       0.15574787
Si      -0.48357197       4.78711827     -19.13010716  F       0.08752973       0.07705533       0.06461052
Si      -0.48357197       3.41937020     -17.19581928  F       0.11655647       0.01783751      -0.15283263
Si       1.45071591       2.05162212      20.09725110  F      -0.08923819       0.23670235      -0.13606499
Si       1.45071591       0.68387404     -19.13010716  F      -0.08827019      -0.22476160       0.11149636
Si       3.38500379       4.78711827     -19.13010716  F       0.23323859       0.26480054       0.15382779
Si       3.38500379       3.41937020     -17.19581928  F       0.11242819       0.02078376      -0.13470342
Si       5.31929168       7.52261443     -17.19581928  F      -0.06725507      -0.94577377      -0.23717364
Si       5.31929168       6.15486635     -15.26153139  F      -0.44467921       0.44529314       0.08416509
Si      -4.35214774      -6.15486635     -15.26153139  F       0.44467948      -0.44529369       0.08416553
Si      -4.35214774      -7.52261443     -13.32724351  F      -0.50524286       0.21195284      -0.87338441
Si      -2.41785985       7.52261443     -17.19581928  F       0.10939564      -0.44017573      -0.19401848
Si      -2.41785985       6.15486635     -15.26153139  F      -0.03894521      -0.05576437       0.04499745
Si      -0.48357197      -6.15486635     -15.26153139  F      -0.15762959      -0.06274030      -0.07984653
Si      -0.48357197      -7.52261443     -13.32724351  F       0.11227911       0.02179332      -0.02986542
Si       1.45071591       7.52261443     -17.19581928  F       0.00331184      -0.37316045      -0.27709996
Si       1.45071591       6.15486635     -15.26153139  F       0.15762984       0.06274008      -0.07984693
Si       3.38500379      -6.15486635     -15.26153139  F       0.03894516       0.05576450       0.04499710
Si       3.38500379      -7.52261443     -13.32724351  F      -0.17532403      -0.28832584      -0.69095234
Si       5.31929168      -3.41937020     -17.19581928  F      -0.15137263      -0.29899194      -0.20658504
Si       5.31929168      -4.78711827     -15.26153139  F      -0.12667256       0.16266917       0.05362859
Si      -4.35214774      -0.68387404     -15.26153139  F       0.11409872      -0.18892264       0.03747055
Si      -4.35214774      -2.05162212     -13.32724351  F       0.08590167      -0.53716731      -0.89095009
Si      -2.41785985      -3.41937020     -17.19581928  F      -0.11242821      -0.02078429      -0.13470383
Si      -2.41785985      -4.78711827     -15.26153139  F      -0.18981001      -0.14726282       0.18170607
Si      -0.48357197      -0.68387404     -15.26153139  F       0.08629451      -0.03376897       0.03420181
Si      -0.48357197      -2.05162212     -13.32724351  F       0.06604380      -0.36202557      -0.60030488
Si       1.45071591      -3.41937020     -17.19581928  F      -0.11655640      -0.01783726      -0.15283253
Si       1.45071591      -4.78711827     -15.26153139  F      -0.03873682      -0.10160264       0.08250015
Si       3.38500379      -0.68387404     -15.26153139  F       0.14998952       0.04479668       0.03575268
Si       3.38500379      -2.05162212     -13.32724351  F       0.18940136      -0.13941950      -0.53758528
Si       5.31929168       2.05162212     -17.19581928  F      -0.16896048      -0.31396065      -0.19748243
Si       5.31929168       0.68387404     -15.26153139  F      -0.11409847       0.18891918       0.03747244
Si      -4.35214774       4.78711827     -15.26153139  F       0.12667245      -0.16267025       0.05362830
Si      -4.35214774       3.41937020     -13.32724351  F       0.09985180      -0.19232921      -0.39184145
Si      -2.41785985       2.05162212     -17.19581928  F      -0.06662250       0.03989981      -0.13807168
Si      -2.41785985       0.68387404     -15.26153139  F      -0.14998912      -0.04479447       0.03575132
Si      -0.48357197       4.78711827     -15.26153139  F       0.03873673       0.10160241       0.08249956
Si      -0.48357197       3.41937020     -13.32724351  F      -0.01785660      -0.87483519      -1.10317296
Si       1.45071591       2.05162212     -17.19581928  F      -0.11717686      -0.00276513      -0.17267127
Si       1.45071591       0.68387404     -15.26153139  F      -0.08629509       0.03376846       0.03420138
Si       3.38500379       4.78711827     -15.26153139  F       0.18980949       0.14726452       0.18170614
Si       3.38500379       3.41937020     -13.32724351  F       0.05354308      -0.25078079      -0.66544238
Si       5.31929168       7.52261443     -13.32724351  F       0.50525654      -0.21194857      -0.87339218
Si       3.46912168       7.13583909     -12.09777748  T      -0.11050959      -0.07431427       0.31013422
Si      -2.50197634      -7.13583729     -12.09777670  T       0.11047861       0.07427413       0.31011517
Si      -1.87886779      -7.98218247      -9.88500256  T       0.05262949      -0.09725972      -0.01196709
Si      -2.41785985       7.52261443     -13.32724351  F       0.17532363       0.28832541      -0.69095159
Si      -2.53985723       6.16977811     -11.51771453  T      -0.06235208      -0.38905052       0.39197614
Si       0.00637288      -5.99065384     -11.66728155  T       0.08855079       0.40903180       0.12798182
Si       0.30900726      -7.10053434      -9.67299543  T       0.02250919      -0.22055906       0.05477794
Si       1.45071591       7.52261443     -13.32724351  F      -0.11227737      -0.02180157      -0.02985645
Si       0.96076728       5.99065335     -11.66728159  T      -0.08847106      -0.40901473       0.12797304
Si       3.50699936      -6.16977783     -11.51771471  T       0.06239270       0.38904424       0.39197788
Si       2.67060811      -7.55909093      -9.77642698  T      -0.04769161      -0.16375072      -0.08728106
Si       5.31929168      -3.41937020     -13.32724351  F      -0.09985172       0.19233315      -0.39184087
Si       5.36778298      -4.72345129     -11.42828741  T       0.03550226      -0.35590328       0.26638256
Si      -4.31533691      -0.85345701     -11.43952401  T       0.01247569       0.49475506       0.47532030
Si      -4.20846169      -2.29988722      -9.62845013  T       0.00066063      -0.21317953      -0.03671929
Si      -2.41785985      -3.41937020     -13.32724351  F      -0.05353743       0.25076358      -0.66543043
Si      -2.05788640      -4.86036033     -11.58778676  T       0.09277279      -0.37932688       0.27090689
Si      -0.47492153      -0.68335425     -11.50936675  T      -0.00485681       0.39953271       0.31474558
Si      -0.41829169      -2.04941223      -9.62379539  T      -0.00803263      -0.16304652       0.01754377
Si       1.45071591      -3.41937020     -13.32724351  F       0.01785876       0.87482905      -1.10316932
Si       1.80451949      -4.58813023     -11.48096944  T       0.13878181      -0.46990579       0.50220151
Si       3.43863601      -0.58923164     -11.53132385  T       0.00248723       0.36207911       0.20087060
Si       3.56394021      -1.83608763      -9.57784045  T       0.02723273      -0.17634083       0.05915090
Si       5.31929168       2.05162212     -13.32724351  F      -0.08590357       0.53718663      -0.89096529
Si       5.28248501       0.85346348     -11.43952202  T      -0.01256291      -0.49490134       0.47527522
Si      -4.40063827       4.72345293     -11.42828834  T      -0.03551921       0.35587012       0.26640574
Si      -4.30654458       3.44562997      -9.49094250  T      -0.05981569      -0.18056878       0.04836539
Si      -2.41785985       2.05162212     -13.32724351  F      -0.18940560       0.13940441      -0.53757556
Si      -2.47149750       0.58922628     -11.53132575  T      -0.00237742      -0.36196090       0.20091229
Si      -0.83737210       4.58813079     -11.48096994  T      -0.13884630       0.46989915       0.50221414
Si      -0.68186246       3.17739308      -9.64236792  T       0.04116281      -0.17960787      -0.04085409
Si       1.45071591       2.05162212     -13.32724351  F      -0.06604217       0.36202422      -0.60030462
Si       1.44206639       0.68335404     -11.50936658  T       0.00484109      -0.39952772       0.31473996
Si       3.02503197       4.86035571     -11.58778544  T      -0.09281090       0.37942645       0.27087702
Si       3.20045614       3.58408903      -9.63566636  T       0.03962421      -0.18216204       0.01883891
Si       2.84601204       7.98218251      -9.88500246  T      -0.05263643       0.09726111      -0.01197213
Si       3.89098289       7.06316897      -7.95832764  T       0.16491376      -0.09915600      -0.03622487
Si      -2.92383753      -7.06316593      -7.95832735  T      -0.16493973       0.09909430      -0.03622900
Si      -1.92387682      -7.97051016      -6.03125653  T       0.05676919      -0.13565665       0.02009448
Si      -1.70346397       7.55909127      -9.77642720  T       0.04768667       0.16374719      -0.08727522
Si      -2.26470766       6.54509799      -7.76653614  T      -0.11112917      -0.15572935       0.05668038
Si       0.25461920      -5.84759552      -7.70915544  T      -0.00365871       0.24061572       0.01237075
Si       0.27102871      -7.16749261      -5.78187546  T       0.01147625      -0.19991863       0.05639550
Si       0.65813654       7.10053370      -9.67299531  T      -0.02250360       0.22056600       0.05477548
Si       0.71252349       5.84759732      -7.70915426  T       0.00368709      -0.24064646       0.01235536
Si       3.23185119      -6.54509870      -7.76653632  T       0.11113875       0.15574439       0.05668686
Si       2.53760673      -7.81887481      -5.94164122  T      -0.04374725      -0.20242773      -0.02151086
Si       5.27369041      -3.44563306      -9.49094316  T       0.05977051       0.18063587       0.04838160
Si       4.46932390      -4.53489216      -7.56653577  T      -0.06040745      -0.14305468       0.00576688
Si      -4.24981630      -1.09670524      -7.67203001  T      -0.01648994       0.22279549       0.03867426
Si      -4.15566125      -2.50356510      -5.84283678  T      -0.00891489      -0.22230393      -0.04529772
Si      -2.23331882      -3.58408275      -9.63566777  T      -0.03948554       0.18201856       0.01887072
Si      -1.91580729      -4.95790285      -7.77716240  T       0.02315589      -0.17849076       0.02043246
Si      -0.47191413      -0.69434157      -7.72472696  T      -0.01891504       0.17297221       0.01179189
Si      -0.39925398      -2.07707448      -5.85716538  T      -0.00562837      -0.17030948      -0.01120098
Si       1.64900455      -3.17739309      -9.64236835  T      -0.04112284       0.17960812      -0.04084002
Si       2.06972449      -4.34734205      -7.70145103  T       0.05447408      -0.19622539       0.02304595
Si       3.48924537      -0.49463137      -7.63547410  T       0.00272171       0.16237396      -0.00440019
Si       3.54901243      -1.65986862      -5.57789017  T       0.01999727      -0.12740865       0.05961220
Si       5.17561114       2.29987944      -9.62845101  T      -0.00077234       0.21335145      -0.03669905
Si       5.21696383       1.09671286      -7.67202913  T       0.01641306      -0.22296858       0.03865688
Si      -3.50217957       4.53489314      -7.56653595  T       0.06039607       0.14303664       0.00577175
Si      -4.03885667       3.51950478      -5.50390489  T      -0.12248692      -0.13425644       0.03839968
Si      -2.59679752       1.83609324      -9.57783897  T      -0.02720773       0.17621731       0.05911135
Si      -2.52210605       0.49462653      -7.63547415  T      -0.00262671      -0.16226631      -0.00440091
Si      -1.10258052       4.34734145      -7.70145168  T      -0.05447242       0.19623708       0.02306126
Si      -0.72079883       3.07586084      -5.80977384  T       0.04544584      -0.19394012       0.03377317
Si       1.38543693       2.04941193      -9.62379567  T       0.00800699       0.16305003       0.01755127
Si       1.43905858       0.69434143      -7.72472655  T       0.01890594      -0.17296779       0.01178775
Si       2.88295230       4.95789630      -7.77716406  T      -0.02317639       0.17863818       0.02046695
Si       3.09840357       3.67175845      -5.82865728  T       0.04479941      -0.15255781       0.02236585
Si       2.89102130       7.97051019      -6.03125687  T      -0.05677900       0.13565595       0.02009785
Si       3.12270152       7.04471754      -3.85523695  T       0.01813671       0.00000474       0.14482026
Si      -2.15555736      -7.04471708      -3.85523680  T      -0.01813825      -0.00001058       0.14482047
Si      -3.27502207      -5.41909518      -2.17435240  T      -0.11913013      -0.03837854       0.08414908
Si      -1.57046248       7.81887487      -5.94164126  T       0.04374257       0.20242701      -0.02151433
Si      -1.87347520       6.71455487      -3.90554371  T      -0.04423944      -0.08599798       0.21034339
Si       0.24033226      -6.35598814      -3.49241494  T      -0.01099188       0.02681332       0.07750648
Si      -1.57755300      -5.41578484      -0.23548824  T       0.02104311      -0.04073691      -0.10505529
Si       0.69611481       7.16749236      -5.78187596  T      -0.01146562       0.19993107       0.05641002
Si       0.72681167       6.35598823      -3.49241505  T       0.01099426      -0.02681540       0.07750518
Si       2.84061894      -6.71455474      -3.90554343  T       0.04424126       0.08599799       0.21034175
Si       0.57343596      -6.07960940      -0.95300441  T      -0.03270509      -0.02904887      -0.02200867
Si       5.00600102      -3.51950522      -5.50390526  T       0.12247754       0.13427270       0.03840464
Si       4.14348797      -4.64570422      -3.60501509  T      -0.02092344      -0.10685164       0.07880045
Si      -4.17345400      -1.43906128      -3.81853291  T      -0.03591529       0.20872806       0.12329535
Si      -3.99087242      -3.06699644      -2.14997187  T      -0.08647196      -0.12549478      -0.01485978
Si      -2.13126421      -3.67175487      -5.82865688  T      -0.04470230       0.15248583       0.02235652
Si      -1.59385043      -4.70029918      -3.75249794  T       0.09255639      -0.03442009       0.01241787
Si      -0.34309010      -0.82372590      -3.90466541  T      -0.03585072       0.11520545       0.04841689
Si       0.46730663      -1.81341713      -1.89304789  T       0.06834699      -0.10476472      -0.07590770
Si       1.68794205      -3.07586067      -5.80977436  T      -0.04542615       0.19393690       0.03378371
Si       1.78462236      -4.53376203      -4.00330036  T       0.05168321      -0.16267279      -0.10326268
Si       3.42348755      -0.18418171      -3.68153213  T       0.03369346       0.14518839      -0.04834300
Si       2.95337451      -1.20584025      -1.61376745  T      -0.00871581      -0.13069373       0.09333664
Si       5.12280892       2.50356000      -5.84283912  T       0.00883478       0.22241710      -0.04524603
Si       5.14059843       1.43906288      -3.81853306  T       0.03590541      -0.20875765       0.12329802
Si      -3.17634378       4.64570460      -3.60501532  T       0.02092280       0.10684946       0.07880215
Si      -2.69117398       3.46665981      -1.40592327  T      -0.04376102      -0.04844333      -0.07319009
Si      -2.58186847       1.65987085      -5.57788969  T      -0.01999717       0.12736465       0.05959942
Si      -2.45634418       0.18418099      -3.68153199  T      -0.03368156      -0.14516771      -0.04834425
Si      -0.81747816       4.53376198      -4.00330062  T      -0.05168331       0.16267796      -0.10325702
Si      -0.44392104       4.01513229      -1.80172180  T       0.06645342      -0.05367543       0.24283614
Si       1.36639909       2.07707440      -5.85716526  T       0.00560837       0.17031163      -0.01119932
Si       1.31023381       0.82372606      -3.90466529  T       0.03585220      -0.11520656       0.04841770
Si       2.56099465       4.70029853      -3.75249860  T      -0.09256304       0.03443933       0.01243244
Si       2.60304570       3.45576577      -1.58310480  T      -0.08363787       0.01454980       0.01220522
Si       4.24216583       5.41909541      -2.17435229  T       0.11913046       0.03837519       0.08414698
Si       4.19076967       5.80870556       1.58905367  T       0.12590701      -0.04103768      -0.12108964
Si      -3.22362578      -5.80870535       1.58905366  T      -0.12590726       0.04103602      -0.12108920
Si      -2.42142022      -6.76804575       3.58091205  T       0.11902846      -0.13920259      -0.00669982
Si       0.39370767       6.07960949      -0.95300457  T       0.03270687       0.02904855      -0.02200838
Si      -0.66560364       5.61259376       1.24953277  T      -0.07333426      -0.05012334      -0.05199427
Si      -0.54194676      -4.39998546       1.80684980  T       0.01644101       0.13001842      -0.08176403
Si      -0.42732843      -5.60684537       3.84281942  T       0.01068993      -0.19273775      -0.02530676
Si       2.54469688       5.41578493      -0.23548835  T      -0.02104487       0.04073777      -0.10505550
Si       1.50909068       4.39998566       1.80684984  T      -0.01644145      -0.13001946      -0.08176468
Si       1.63274751      -5.61259361       1.24953286  T       0.07333426       0.05012345      -0.05199491
Si       1.67599948      -6.55548879       3.45684029  T      -0.02913131      -0.14723003       0.04489772
Si       3.65831788      -3.46665988      -1.40592328  T       0.04375906       0.04844763      -0.07319036
Si       2.98657072      -3.68753271       0.90040783  T      -0.03385833      -0.10042734       0.00137604
Si      -3.17420920      -2.33401033      -0.05135539  T       0.00231115       0.07289714       0.18871294
Si      -4.30817288      -0.76913278       4.36054435  T      -0.07930385      -0.04204176      -0.15754574
Si      -1.63590188      -3.45576560      -1.58310458  T       0.08363787      -0.01455133       0.01220461
Si      -2.81753707      -3.52764106       1.97823918  T      -0.02462768      -0.05734587      -0.15010585
Si      -0.19365556      -0.93135435       0.13879707  T      -0.05040227       0.05933277       0.17516163
Si      -1.05412504      -0.76385825       4.13953411  T       0.01939663      -0.01345740      -0.12680502
Si       1.41106479      -4.01513230      -1.80172179  T      -0.06645273       0.05367603       0.24283757
Si       0.93325496      -2.57495169       1.39269422  T      -0.02809000      -0.04418163      -0.15841801
Si       3.35842205       0.15630553       0.36457990  T       0.00600182       0.06695695      -0.01252431
Si       3.78884435      -0.28002672       2.71761147  T       0.01869498      -0.04933749       0.09373317
Si       4.95801617       3.06699604      -2.14997196  T       0.08647157       0.12550690      -0.01485843
Si       4.14135306       2.33401068      -0.05135552  T      -0.00231330      -0.07290190       0.18871404
Si      -2.01942690       3.68753291       0.90040791  T       0.03385826       0.10042718       0.00137515
Si      -2.51065801       2.58643779       2.96733134  T      -0.05098781      -0.11418664      -0.05786537
Si      -1.98623045       1.20584091      -1.61376732  T       0.00871471       0.13068481       0.09333377
Si      -2.39127839      -0.15630559       0.36457994  T      -0.00600027      -0.06695269      -0.01252437
Si       0.03388881       2.57495179       1.39269424  T       0.02809073       0.04418190      -0.15841772
Si      -0.17584511       1.66039831       3.54107895  T       0.02982435      -0.15428560       0.04020119
Si       0.49983720       1.81341713      -1.89304786  T      -0.06834693       0.10476621      -0.07590870
Si       1.16079933       0.93135451       0.13879685  T       0.05040261      -0.05933315       0.17516361
Si       3.78468093       3.52764109       1.97823922  T       0.02462781       0.05734782      -0.15010618
Si       3.77531785       2.54129670       4.12661813  T       0.02874853      -0.15029146      -0.00358513
Si       3.38856411       6.76804583       3.58091201  T      -0.11902942       0.13920229      -0.00669896
Si       4.44498862       6.09268493       5.57519477  T       0.17237138      -0.08443733      -0.01859211
Si      -3.47784483      -6.09268491       5.57519472  T      -0.17237113       0.08443720      -0.01859133
Si      -2.39998849      -6.90189222       7.49846713  T       0.12050061      -0.18044453       0.04537288
Si      -0.70885567       6.55548888       3.45684032  T       0.02913090       0.14722989       0.04489753
Si      -1.64085612       5.27114438       5.25897159  T      -0.10146373      -0.05996358      -0.08562450
Si      -0.43537875      -4.61356595       5.97045964  T      -0.02452866       0.15598541       0.11266785
Si      -0.27993705      -6.00356161       7.94127678  T      -0.01178564      -0.10816293      -0.07212731
Si       1.39447217       5.60684546       3.84281944  T      -0.01068856       0.19273829      -0.02530658
Si       1.40252262       4.61356591       5.97045961  T       0.02452869      -0.15598546       0.11266782
Si       2.60800001      -5.27114442       5.25897154  T       0.10146368       0.05996373      -0.08562436
Si       2.02700202      -5.56954386       7.53398046  T      -0.04913641      -0.03885800       0.06976081
Si       3.47780188      -2.58643768       2.96733141  T       0.05098783       0.11418711      -0.05786567
Si       3.89768158      -3.28877525       5.17492782  T       0.01845212      -0.11911712       0.05290335
Si      -3.57300640      -0.34660268       6.58692081  T       0.08108336       0.07499036       0.00884985
Si      -4.44571292      -1.56360165       8.45261463  T      -0.07400978      -0.14668015      -0.10843945
Si      -2.80817394      -2.54129658       4.12661810  T      -0.02874867       0.15029106      -0.00358492
Si      -2.65188606      -3.93946228       5.98164574  T       0.01819235      -0.14217407      -0.02243961
Si      -1.17849731      -0.56528642       6.51925934  T      -0.00211704       0.03764632       0.09548958
Si      -0.65292943      -2.12148629       8.44842863  T       0.01581352      -0.05699395      -0.06011946
Si       1.14298907      -1.66039837       3.54107888  T      -0.02982425       0.15428567       0.04020195
Si       1.34572389      -3.20869772       5.26617343  T       0.00631999      -0.08313944       0.12275531
Si       2.30165744      -1.80671191       6.88216962  T      -0.00700687       0.03483402      -0.04190279
Si       3.63066938      -2.48592226       9.08179156  T      -0.01380951      -0.04649262      -0.16982885
Si       5.27531682       0.76913297       4.36054438  T       0.07930406       0.04204153      -0.15754590
Si       4.54015040       0.34660265       6.58692080  T      -0.08108347      -0.07499026       0.00884998
Si      -2.93053772       3.28877520       5.17492776  T      -0.01845221       0.11911718       0.05290388
Si      -3.72868541       1.98573876       6.98469139  T      -0.08623786      -0.02657485       0.12979802
Si      -2.82170046       0.28002692       2.71761142  T      -0.01869495       0.04933645       0.09373305
Si      -1.33451356       1.80671189       6.88216957  T       0.00700721      -0.03483408      -0.04190242
Si      -0.37858005       3.20869768       5.26617338  T      -0.00631977       0.08313971       0.12275553
Si      -0.52211903       3.46281786       8.53006413  T       0.02767414       0.01091839      -0.01378218
Si       2.02126900       0.76385831       4.13953410  T      -0.01939667       0.01345742      -0.12680501
Si       2.14564130       0.56528640       6.51925931  T       0.00211707      -0.03764626       0.09548974
Si       3.61902996       3.93946226       5.98164573  T      -0.01819256       0.14217458      -0.02243915
Si       3.84658631       3.28793606       8.24298709  T       0.07113660      -0.12955257       0.06666207
Si       3.36713243       6.90189224       7.49846714  T      -0.12050100       0.18044487       0.04537326
Si       4.49508916       5.51824605       9.04913511  T       0.14325610      -0.01345614       0.04730989
Si      -3.52794534      -5.51824607       9.04913510  T      -0.14325548       0.01345650       0.04731008
Si      -3.32986610      -5.77926510      11.54698629  T      -0.11395099      -0.16048144       0.10488572
Si      -1.05985806       5.56954376       7.53398050  T       0.04913641       0.03885819       0.06976071
Si      -2.49459924       5.97367836       9.48467014  T      -0.07691992       0.07569319      -0.03683770
Si      -0.23360408      -5.86675900      10.30108818  T       0.07398910       0.09017498       0.03335633
Si      -1.28221518      -6.85341031      12.18053998  T      -0.16608396      -0.23937419      -0.26265138
Si       1.24708102       6.00356156       7.94127679  T       0.01178553       0.10816289      -0.07212713
Si       1.20074806       5.86675896      10.30108824  T      -0.07398984      -0.09017500       0.03335584
Si       3.46174321      -5.97367830       9.48467009  T       0.07691981      -0.07569341      -0.03683759
Si       3.39368184      -5.87362801      11.93552810  T       0.05533452      -0.07539230      -0.18378264
Si       4.69582939      -1.98573882       6.98469128  T       0.08623781       0.02657531       0.12979826
Si       4.95193862      -4.21621700       9.99910704  T       0.12445503      -0.07314777      -0.18564901
Si      -4.37867981      -0.55179486      10.53849525  T       0.00727569       0.18533852       0.03295634
Si      -4.38802718      -1.95345357      12.40203806  T      -0.01576727      -0.40852017      -0.34350500
Si      -2.87944229      -3.28793606       8.24298712  T      -0.07113706       0.12955240       0.06666210
Si      -1.89574787      -4.25590170      10.25580342  T       0.13665127       0.00103874      -0.06705075
Si      -0.49363982      -0.69253995      10.39130664  T      -0.00535834       0.09619027      -0.01950022
Si      -0.58186351      -2.01145342      12.39714059  T      -0.01908491      -0.26273921      -0.27230181
Si       1.48926312      -3.46281791       8.53006412  T      -0.02767426      -0.01091834      -0.01378186
Si       1.71673151      -4.69496744      10.66731397  T      -0.06995274      -0.05172193      -0.13013817
Si       3.38497343      -0.71642096      10.56320516  T       0.01048692       0.21309820      -0.10298150
Si       3.26074028      -1.99432841      12.47798709  T      -0.05273323      -0.46867050      -0.35800186
Si       5.41285692       1.56360166       8.45261464  T       0.07400977       0.14667990      -0.10843945
Si       5.34582384       0.55179484      10.53849526  T      -0.00727553      -0.18533815       0.03295650
Si      -3.98479469       4.21621699       9.99910691  T      -0.12445476       0.07314791      -0.18564848
Si      -3.65566653       3.88133902      12.30071455  T       0.16895407      -0.28546935      -0.25713511
Si      -2.66352522       2.48592234       9.08179163  T       0.01380902       0.04649244      -0.16982933
Si      -2.41782939       0.71642096      10.56320509  T      -0.01048726      -0.21309867      -0.10298145
Si      -0.74958758       4.69496736      10.66731390  T       0.06995290       0.05172234      -0.13013806
Si      -0.40036831       3.35070952      12.52357493  T       0.04681592      -0.40849236      -0.27749016
Si       1.62007329       2.12148629       8.44842858  T      -0.01581273       0.05699383      -0.06011931
Si       1.46078380       0.69253998      10.39130664  T       0.00535840      -0.09619059      -0.01950036
Si       2.86289180       4.25590170      10.25580340  T      -0.13665124      -0.00103939      -0.06705030
Si       3.53688401       3.45632373      12.40281609  T       0.04034341      -0.33008647      -0.27559144
Si       4.29701004       5.77926513      11.54698626  T       0.11395085       0.16048124       0.10488588
Si       5.31929168       6.15486635      14.29438745  F      -0.37810425       0.11584718       0.35351076
Si      -4.35214774      -6.15486635      14.29438745  F       0.37810425      -0.11584719       0.35351077
Si      -4.35214774      -7.52261443      16.22867533  F       0.20915163       0.86551703       0.00311775
Si      -2.42653794       5.87362792      11.93552812  T      -0.05533433       0.07539234      -0.18378273
Si      -2.41785985       6.15486635      14.29438745  F      -0.02016929      -0.25525983       0.50654856
Si      -0.48357197      -6.15486635      14.29438745  F      -0.06404434       0.35801774       0.21099409
Si      -0.48357197      -7.52261443      16.22867533  F      -0.07244191       0.07469224       0.03931033
Si       2.24935910       6.85341034      12.18053994  T       0.16608408       0.23937422      -0.26265087
Si       1.45071591       6.15486635      14.29438745  F       0.06404441      -0.35801767       0.21099390
Si       3.38500379      -6.15486635      14.29438745  F       0.02016930       0.25525983       0.50654854
Si       3.38500379      -7.52261443      16.22867533  F      -0.19077733       0.07617933      -0.01056827
Si       4.62281047      -3.88133911      12.30071463  T      -0.16895411       0.28546915      -0.25713549
Si       5.31929168      -4.78711827      14.29438745  F       0.03987355      -0.22429383       0.71210849
Si      -4.35214774      -0.68387404      14.29438745  F       0.14691056       0.23902466       0.59373722
Si      -4.35214774      -2.05162212      16.22867533  F       0.09029080       0.19917454      -0.02954138
Si      -2.56974012      -3.45632382      12.40281606  T      -0.04034346       0.33008689      -0.27559125
Si      -2.41785985      -4.78711827      14.29438745  F      -0.07162707      -0.32997312       0.62911771
Si      -0.48357197      -0.68387404      14.29438745  F       0.00694247       0.29020368       0.29709342
Si      -0.48357197      -2.05162212      16.22867533  F       0.06879166      -0.01305290      -0.04261131
Si       1.36751224      -3.35070945      12.52357492  T      -0.04681600       0.40849188      -0.27748996
Si       1.45071591      -4.78711827      14.29438745  F      -0.03127307      -0.35599113       0.57056596
Si       3.38500379      -0.68387404      14.29438745  F       0.20152591       0.57325598       1.03450704
Si       3.38500379      -2.05162212      16.22867533  F       0.12993398      -0.07732952      -0.10402394
Si       5.35517113       1.95345356      12.40203811  T       0.01576727       0.40852032      -0.34350550
Si       5.31929168       0.68387404      14.29438745  F      -0.14691058      -0.23902490       0.59373756
Si      -4.35214774       4.78711827      14.29438745  F      -0.03987332       0.22429347       0.71210780
Si      -4.35214774       3.41937020      16.22867533  F       0.06963638       0.03213302      -0.01757090
Si      -2.29359624       1.99432828      12.47798703  T       0.05273275       0.46867158      -0.35800151
Si      -2.41785985       0.68387404      14.29438745  F      -0.20152585      -0.57325612       1.03450708
Si      -0.48357197       4.78711827      14.29438745  F       0.03127302       0.35599137       0.57056623
Si      -0.48357197       3.41937020      16.22867533  F       0.13011406      -0.00648873       0.06084589
Si       1.54900737       2.01145343      12.39714057  T       0.01908523       0.26273927      -0.27230153
Si       1.45071591       0.68387404      14.29438745  F      -0.00694255      -0.29020368       0.29709325
Si       3.38500379       4.78711827      14.29438745  F       0.07162710       0.32997302       0.62911752
Si       3.38500379       3.41937020      16.22867533  F       0.17836219      -0.13369068       0.04585155
Si       5.31929168       7.52261443      16.22867533  F      -0.20915163      -0.86551704       0.00311776
Si       5.31929168       6.15486635      18.16296322  F      -0.42111887       0.73023701       0.23780946
Si      -4.35214774      -6.15486635      18.16296322  F       0.42111887      -0.73023701       0.23780946
Si      -4.35214774      -7.52261443      20.09725110  F       0.53674218       0.74939934      -1.09892884
Si      -2.41785985       7.52261443      16.22867533  F       0.19077733      -0.07617934      -0.01056828
Si      -2.41785985       6.15486635      18.16296322  F       0.01907584       0.23445078       0.19299388
Si      -0.48357197      -6.15486635      18.16296322  F       0.08908415      -0.28177366       0.09283177
Si      -0.48357197      -7.52261443      20.09725110  F       0.01349439       0.55009758      -0.75981434
Si       1.45071591       7.52261443      16.22867533  F       0.07244191      -0.07469225       0.03931032
Si       1.45071591       6.15486635      18.16296322  F      -0.08908415       0.28177366       0.09283176
Si       3.38500379      -6.15486635      18.16296322  F      -0.01907584      -0.23445078       0.19299387
Si       3.38500379      -7.52261443      20.09725110  F      -0.39378402       0.57398428      -0.84281373
Si       5.31929168      -3.41937020      16.22867533  F      -0.06963638      -0.03213301      -0.01757092
Si       5.31929168      -4.78711827      18.16296322  F      -0.21179194       0.25644591       0.22171326
Si      -4.35214774      -0.68387404      18.16296322  F       0.16715138      -0.33190484       0.19345202
Si      -4.35214774      -2.05162212      20.09725110  F       0.81096315      -0.01336734      -0.79525819
Si      -2.41785985      -3.41937020      16.22867533  F      -0.17836220       0.13369070       0.04585155
Si      -2.41785985      -4.78711827      18.16296322  F      -0.11883455      -0.07978193       0.19787737
Si      -0.48357197      -0.68387404      18.16296322  F       0.11220026      -0.04529398       0.13605047
Si      -0.48357197      -2.05162212      20.09725110  F       0.08923819      -0.23670235      -0.13606499
Si       1.45071591      -3.41937020      16.22867533  F      -0.13011405       0.00648871       0.06084591
Si       1.45071591      -4.78711827      18.16296322  F      -0.12368897      -0.00797069       0.22430982
Si       3.38500379      -0.68387404      18.16296322  F       0.07420278      -0.00330102       0.11664152
Si       3.38500379      -2.05162212      20.09725110  F       0.18319155      -0.32906789      -0.16977159
Si       5.31929168       2.05162212      16.22867533  F      -0.09029079      -0.19917454      -0.02954136
Si       5.31929168       0.68387404      18.16296322  F      -0.16715138       0.33190484       0.19345201
Si      -4.35214774       4.78711827      18.16296322  F       0.21179195      -0.25644591       0.22171326
Si      -4.35214774       3.41937020      20.09725110  F       0.77326269      -0.02866425      -0.78095280
Si      -2.41785985       2.05162212      16.22867533  F      -0.12993398       0.07732958      -0.10402397
Si      -2.41785985       0.68387404      18.16296322  F      -0.07420279       0.00330101       0.11664152
Si      -0.48357197       4.78711827      18.16296322  F       0.12368896       0.00797070       0.22430982
Si      -0.48357197       3.41937020      20.09725110  F       0.09093953      -0.22282060      -0.09771208
Si       1.45071591       2.05162212      16.22867533  F      -0.06879165       0.01305290      -0.04261131
Si       1.45071591       0.68387404      18.16296322  F      -0.11220026       0.04529398       0.13605047
Si       3.38500379       4.78711827      18.16296322  F       0.11883455       0.07978193       0.19787737
Si       3.38500379       3.41937020      20.09725110  F       0.23058044      -0.29581537      -0.15032305
