360
Lattice="11.605727294873521 0.0 0.0 0.0 16.412976941613742 0.0 0.0 0.0 38.6857576495784" Properties=species:S:1:pos:R:3:move_mask:L:1:forces:R:3 energy=-1745.066947525993 free_energy=-1745.066947525993 pbc="F F F"
Si       5.31929168       7.52261443      20.09725110  F      -0.54464289      -0.73763499      -1.08395350
Si       5.31929168       6.15486635     -19.13010716  F      -0.85602547       0.16110098       1.05452279
Si      -4.35214774      -6.15486635     -19.13010716  F       0.85602547      -0.16110098       1.05452279
Si      -4.35214774      -7.52261443     -17.19581928  F       0.06819150       0.94171105      -0.23174554
Si      -2.41785985       7.52261443      20.09725110  F       0.39141913      -0.57732581      -0.84324644
Si      -2.41785985       6.15486635     -19.13010716  F      -0.11457795      -0.24269356       0.66405723
Si      -0.48357197      -6.15486635     -19.13010716  F       0.05611121       0.07725272       0.63922291
Si      -0.48357197      -7.52261443     -17.19581928  F      -0.00345428       0.36792435      -0.26513503
Si       1.45071591       7.52261443      20.09725110  F      -0.01060878      -0.54941907      -0.76154173
Si       1.45071591       6.15486635     -19.13010716  F      -0.05611121      -0.07725272       0.63922291
Si       3.38500379      -6.15486635     -19.13010716  F       0.11457795       0.24269356       0.66405723
Si       3.38500379      -7.52261443     -17.19581928  F      -0.11159913       0.43434745      -0.19127285
Si       5.31929168      -3.41937020      20.09725110  F      -0.77443305       0.02604698      -0.78717554
Si       5.31929168      -4.78711827     -19.13010716  F      -0.79777820       0.02891859       0.76838849
Si      -4.35214774      -0.68387404     -19.13010716  F       0.80378896       0.00591657       0.79989625
Si      -4.35214774      -2.05162212     -17.19581928  F       0.17303930       0.31412962      -0.19573396
Si      -2.41785985      -3.41937020      20.09725110  F      -0.23204825       0.30716550      -0.14033464
Si      -2.41785985      -4.78711827     -19.13010716  F      -0.23176672      -0.26309300       0.15954284
Si      -0.48357197      -0.68387404     -19.13010716  F       0.08799723       0.22343168       0.11378945
Si      -0.48357197      -2.05162212     -17.19581928  F       0.11688582       0.00069095      -0.16846491
Si       1.45071591      -3.41937020      20.09725110  F      -0.08844059       0.22092166      -0.09997505
Si       1.45071591      -4.78711827     -19.13010716  F      -0.08694827      -0.07523433       0.06870590
Si       3.38500379      -0.68387404     -19.13010716  F       0.19600209       0.34392976       0.16016108
Si       3.38500379      -2.05162212     -17.19581928  F       0.06648849      -0.04215809      -0.13148305
Si       5.31929168       2.05162212      20.09725110  F      -0.81312514       0.01196771      -0.80028461
Si       5.31929168       0.68387404     -19.13010716  F      -0.80378896      -0.00591657       0.79989625
Si      -4.35214774       4.78711827     -19.13010716  F       0.79777820      -0.02891859       0.76838849
Si      -4.35214774       3.41937020     -17.19581928  F       0.15431315       0.29908438      -0.20452475
Si      -2.41785985       2.05162212      20.09725110  F      -0.18304678       0.32642338      -0.17326577
Si      -2.41785985       0.68387404     -19.13010716  F      -0.19600209      -0.34392976       0.16016108
Si      -0.48357197       4.78711827     -19.13010716  F       0.08694827       0.07523433       0.06870590
Si      -0.48357197       3.41937020     -17.19581928  F       0.11741399       0.01709350      -0.14964768
Si       1.45071591       2.05162212      20.09725110  F      -0.08980873       0.23422116      -0.13887318
Si       1.45071591       0.68387404     -19.13010716  F      -0.08799723      -0.22343168       0.11378945
Si       3.38500379       4.78711827     -19.13010716  F       0.23176672       0.26309300       0.15954284
Si       3.38500379       3.41937020     -17.19581928  F       0.11169027       0.02266164      -0.12766710
Si       5.31929168       7.52261443     -17.19581928  F      -0.06819150      -0.94171105      -0.23174554
Si       5.31929168       6.15486635     -15.26153139  F      -0.47164463       0.44414701       0.10972568
Si      -4.35214774      -6.15486635     -15.26153139  F       0.47164463      -0.44414701       0.10972567
Si      -4.35214774      -7.52261443     -13.32724351  F      -0.23633433       0.25442932      -0.67550311
Si      -2.41785985       7.52261443     -17.19581928  F       0.11159912      -0.43434745      -0.19127285
Si      -2.41785985       6.15486635     -15.26153139  F      -0.04525594      -0.08383402       0.05526178
Si      -0.48357197      -6.15486635     -15.26153139  F      -0.16531531      -0.02875253      -0.06364711
Si      -0.48357197      -7.52261443     -13.32724351  F       0.06610482       0.25394466       0.37931267
Si       1.45071591       7.52261443     -17.19581928  F       0.00345428      -0.36792435      -0.26513503
Si       1.45071591       6.15486635     -15.26153139  F       0.16531531       0.02875253      -0.06364711
Si       3.38500379      -6.15486635     -15.26153139  F       0.04525594       0.08383402       0.05526178
Si       3.38500379      -7.52261443     -13.32724351  F      -0.14501706       0.01570719      -0.23569317
Si       5.31929168      -3.41937020     -17.19581928  F      -0.15431315      -0.29908438      -0.20452475
Si       5.31929168      -4.78711827     -15.26153139  F      -0.12558686       0.16506844       0.06975043
Si      -4.35214774      -0.68387404     -15.26153139  F       0.11910629      -0.18858379       0.05404173
Si      -4.35214774      -2.05162212     -13.32724351  F       0.08256403      -0.18355889      -0.33441998
Si      -2.41785985      -3.41937020     -17.19581928  F      -0.11169027      -0.02266164      -0.12766710
Si      -2.41785985      -4.78711827     -15.26153139  F      -0.19461931      -0.14102237       0.18748645
Si      -0.48357197      -0.68387404     -15.26153139  F       0.09048609      -0.01664860       0.04756267
Si      -0.48357197      -2.05162212     -13.32724351  F       0.06937852      -0.09741560      -0.18303776
Si       1.45071591      -3.41937020     -17.19581928  F      -0.11741399      -0.01709350      -0.14964768
Si       1.45071591      -4.78711827     -15.26153139  F      -0.04297827      -0.11702082       0.10381436
Si       3.38500379      -0.68387404     -15.26153139  F       0.14973013       0.05129446       0.05018443
Si       3.38500379      -2.05162212     -13.32724351  F       0.18255865       0.08108768      -0.19691885
Si       5.31929168       2.05162212     -17.19581928  F      -0.17303930      -0.31412963      -0.19573395
Si       5.31929168       0.68387404     -15.26153139  F      -0.11910630       0.18858380       0.05404172
Si      -4.35214774       4.78711827     -15.26153139  F       0.12558686      -0.16506843       0.06975043
Si      -4.35214774       3.41937020     -13.32724351  F       0.06577505       0.07360739      -0.01337888
Si      -2.41785985       2.05162212     -17.19581928  F      -0.06648849       0.04215809      -0.13148305
Si      -2.41785985       0.68387404     -15.26153139  F      -0.14973013      -0.05129447       0.05018444
Si      -0.48357197       4.78711827     -15.26153139  F       0.04297827       0.11702082       0.10381436
Si      -0.48357197       3.41937020     -13.32724351  F      -0.14121324      -0.52389843      -0.51889988
Si       1.45071591       2.05162212     -17.19581928  F      -0.11688582      -0.00069095      -0.16846491
Si       1.45071591       0.68387404     -15.26153139  F      -0.09048609       0.01664860       0.04756267
Si       3.38500379       4.78711827     -15.26153139  F       0.19461931       0.14102237       0.18748645
Si       3.38500379       3.41937020     -13.32724351  F      -0.02654663       0.04530448      -0.27071639
Si       5.31929168       7.52261443     -13.32724351  F       0.23633432      -0.25442932      -0.67550310
Si       3.46600634       7.15157674     -12.01924873  T      -0.00003812       0.00006117      -0.00009518
Si      -2.49886240      -7.15157674     -12.01924873  T       0.00003816      -0.00006111      -0.00009516
Si      -1.86631029      -8.04474265      -9.80914307  T      -0.00004092      -0.00013017       0.00001729
Si      -2.41785985       7.52261443     -13.32724351  F       0.14501706      -0.01570717      -0.23569318
Si      -2.56392531       6.17172227     -11.43488156  T      -0.00017683      -0.00043434      -0.00040575
Si       0.02295337      -5.99576701     -11.59144441  T       0.00045975       0.00008824      -0.00043221
Si       0.32435114      -7.16002453      -9.59816040  T      -0.00007243       0.00014791       0.00013636
Si       1.45071591       7.52261443     -13.32724351  F      -0.06610482      -0.25394463       0.37931265
Si       0.94419058       5.99576701     -11.59144441  T      -0.00045991      -0.00008831      -0.00043223
Si       3.53106926      -6.17172227     -11.43488156  T       0.00017650       0.00043435      -0.00040575
Si       2.69571362      -7.60384936      -9.70149117  T       0.00016051      -0.00041202       0.00019015
Si       5.31929168      -3.41937020     -13.32724351  F      -0.06577506      -0.07360741      -0.01337889
Si       5.40239171      -4.74066846     -11.35589638  T       0.00011930       0.00022430      -0.00009143
Si      -4.33441005      -0.83341139     -11.36908005  T       0.00004483      -0.00022501      -0.00018498
Si      -4.22564291      -2.32071388      -9.56548530  T       0.00028627       0.00008933       0.00039760
Si      -2.41785985      -3.41937020     -13.32724351  F       0.02654662      -0.04530447      -0.27071640
Si      -2.04705745      -4.87928284     -11.52206079  T      -0.00028390       0.00065524       0.00022000
Si      -0.47598976      -0.67801736     -11.43437351  T      -0.00037130      -0.00013601      -0.00036402
Si      -0.41596594      -2.06641294      -9.54234891  T      -0.00026590       0.00023796       0.00016725
Si       1.45071591      -3.41937020     -13.32724351  F       0.14121322       0.52389847      -0.51889989
Si       1.82244969      -4.60358201     -11.40881110  T      -0.00017085      -0.00009089      -0.00034143
Si       3.44227422      -0.58521920     -11.45757115  T      -0.00020760      -0.00020109      -0.00025898
Si       3.57532310      -1.85466580      -9.49320546  T       0.00021467       0.00031324       0.00032456
Si       5.31929168       2.05162212     -13.32724351  F      -0.08256402       0.18355881      -0.33441990
Si       5.30155397       0.83341137     -11.36908005  T      -0.00004445       0.00022553      -0.00018493
Si      -4.43524779       4.74066845     -11.35589637  T      -0.00011915      -0.00022402      -0.00009161
Si      -4.33753777       3.44295818      -9.40162843  T      -0.00014738      -0.00002487      -0.00034303
Si      -2.41785985       2.05162212     -13.32724351  F      -0.18255863      -0.08108762      -0.19691884
Si      -2.47513026       0.58521924     -11.45757113  T       0.00020721       0.00020040      -0.00025945
Si      -0.85530576       4.60358202     -11.40881110  T       0.00017111       0.00009078      -0.00034144
Si      -0.68892238       3.18806808      -9.55639740  T       0.00016369       0.00004040      -0.00012603
Si       1.45071591       2.05162212     -13.32724351  F      -0.06937854       0.09741561      -0.18303774
Si       1.44313370       0.67801736     -11.43437350  T       0.00037133       0.00013601      -0.00036407
Si       3.01420139       4.87928285     -11.52206080  T       0.00028397      -0.00065539       0.00022008
Si       3.20493972       3.58970623      -9.56037050  T       0.00014785      -0.00016990       0.00003579
Si       2.83345423       8.04474266      -9.80914307  T       0.00004093       0.00013017       0.00001729
Si       3.90539649       7.10380305      -7.88360953  T       0.00024317       0.00018908       0.00004617
Si      -2.93825255      -7.10380303      -7.88360953  T      -0.00024317      -0.00018909       0.00004618
Si      -1.92647713      -8.04903539      -5.95181945  T       0.00009743       0.00015147      -0.00014130
Si      -1.72856968       7.60384937      -9.70149118  T      -0.00016045       0.00041207       0.00019011
Si      -2.29521926       6.58001486      -7.66624460  T      -0.00015621      -0.00003545      -0.00004781
Si       0.25988428      -5.89457383      -7.61592832  T      -0.00016540       0.00026484       0.00016929
Si       0.28960275      -7.29007721      -5.71248024  T       0.00001845      -0.00025673      -0.00029102
Si       0.64279280       7.16002454      -9.59816041  T       0.00007241      -0.00014791       0.00013641
Si       0.70725966       5.89457385      -7.61592832  T       0.00016543      -0.00026481       0.00016926
Si       3.26236321      -6.58001483      -7.66624459  T       0.00015612       0.00003524      -0.00004785
Si       2.57748037      -7.88825309      -5.83405653  T      -0.00010562      -0.00013443      -0.00023357
Si       5.30468169      -3.44295815      -9.40162842  T       0.00014779       0.00002429      -0.00034312
Si       4.49119402      -4.56520443      -7.47459912  T      -0.00026773      -0.00014658       0.00006195
Si      -4.28574041      -1.08218228      -7.60483842  T       0.00017767       0.00002424      -0.00002880
Si      -4.19904396      -2.52591999      -5.77900534  T      -0.00004738       0.00011507       0.00036113
Si      -2.23779577      -3.58970622      -9.56037050  T      -0.00014809       0.00017003       0.00003584
Si      -1.91570005      -5.00451726      -7.70779564  T      -0.00013606       0.00029171       0.00004972
Si      -0.47420180      -0.69098229      -7.63795245  T      -0.00015246      -0.00038148       0.00015462
Si      -0.39458682      -2.10931451      -5.77706409  T       0.00014279       0.00042419       0.00001214
Si       1.65606633      -3.18806807      -9.55639740  T      -0.00016382      -0.00004045      -0.00012598
Si       2.08346321      -4.39995807      -7.61285772  T       0.00054424      -0.00028758      -0.00032132
Si       3.50188164      -0.48469815      -7.55165702  T      -0.00001083       0.00007923      -0.00028556
Si       3.57073837      -1.68081084      -5.49002578  T       0.00025786      -0.00006750      -0.00000644
Si       5.19278684       2.32071391      -9.56548530  T      -0.00028609      -0.00008969       0.00039755
Si       5.25288433       1.08218228      -7.60483841  T      -0.00017744      -0.00002384      -0.00002879
Si      -3.52405009       4.56520444      -7.47459913  T       0.00026790       0.00014678       0.00006192
Si      -4.08747811       3.52265539      -5.41027681  T      -0.00007459      -0.00032944       0.00015447
Si      -2.60817914       1.85466577      -9.49320548  T      -0.00021504      -0.00031234       0.00032501
Si      -2.53473769       0.48469819      -7.55165702  T       0.00001061      -0.00007963      -0.00028561
Si      -1.11631927       4.39995809      -7.61285772  T      -0.00054436       0.00028759      -0.00032132
Si      -0.73615368       3.09253415      -5.71875657  T       0.00044812      -0.00021984       0.00027160
Si       1.38310987       2.06641295      -9.54234892  T       0.00026600      -0.00023792       0.00016731
Si       1.44134574       0.69098230      -7.63795245  T       0.00015246       0.00038149       0.00015455
Si       2.88284399       5.00451728      -7.70779564  T       0.00013607      -0.00029172       0.00004969
Si       3.12598834       3.67023040      -5.77730506  T      -0.00011611      -0.00006429       0.00006808
Si       2.89362107       8.04903541      -5.95181946  T      -0.00009743      -0.00015147      -0.00014129
Si       3.12293180       7.11380289      -3.75334518  T       0.00008881      -0.00014494      -0.00001216
Si      -2.15578787      -7.11380286      -3.75334517  T      -0.00008881       0.00014496      -0.00001215
Si      -3.35246505      -5.47955339      -2.15632065  T       0.00010862       0.00011751       0.00070352
Si      -1.61033643       7.88825311      -5.83405654  T       0.00010565       0.00013445      -0.00023353
Si      -1.90741324       6.76708400      -3.77312562  T      -0.00027180       0.00020773      -0.00012847
Si       0.23343691      -6.38036357      -3.45855453  T      -0.00003250      -0.00010656       0.00007061
Si      -1.62217084      -5.50202435      -0.30028501  T      -0.00006193      -0.00026962       0.00011383
Si       0.67754118       7.29007723      -5.71248025  T      -0.00001847       0.00025673      -0.00029102
Si       0.73370702       6.38036360      -3.45855453  T       0.00003250       0.00010656       0.00007061
Si       2.87455717      -6.76708397      -3.77312561  T       0.00027180      -0.00020773      -0.00012846
Si       0.54415443      -6.16126440      -0.95966228  T       0.00031711      -0.00039478       0.00007005
Si       5.05462205      -3.52265535      -5.41027680  T       0.00007462       0.00032932       0.00015444
Si       4.19385254      -4.70813008      -3.52268963  T       0.00026872      -0.00033272       0.00014476
Si      -4.22564043      -1.42827380      -3.74434307  T       0.00043458      -0.00017738       0.00043395
Si      -4.03913125      -3.11235916      -2.11070658  T       0.00015363       0.00013522      -0.00009428
Si      -2.15884440      -3.67023038      -5.77730506  T       0.00011603       0.00006432       0.00006804
Si      -1.63150778      -4.75722690      -3.72291259  T       0.00021630      -0.00015042      -0.00011875
Si      -0.34898389      -0.82059877      -3.82927315  T       0.00000418       0.00059794       0.00029740
Si       0.48214201      -1.82514791      -1.82136402  T       0.00017451       0.00011092      -0.00011228
Si       1.70329762      -3.09253412      -5.71875657  T      -0.00044812       0.00021979       0.00027158
Si       1.83229412      -4.58639940      -3.91812423  T      -0.00024375      -0.00022631      -0.00007406
Si       3.44362339      -0.16543193      -3.61269077  T       0.00015108      -0.00006814       0.00017495
Si       2.97013406      -1.23668567      -1.55283662  T      -0.00022065      -0.00023145       0.00005090
Si       5.16618789       2.52592002      -5.77900533  T       0.00004744      -0.00011521       0.00036098
Si       5.19278436       1.42827383      -3.74434307  T      -0.00043457       0.00017740       0.00043401
Si      -3.22670860       4.70813011      -3.52268964  T      -0.00026872       0.00033273       0.00014476
Si      -2.68213572       3.50539857      -1.39246674  T       0.00013733      -0.00016256      -0.00011511
Si      -2.60359443       1.68081085      -5.49002578  T      -0.00025790       0.00006770      -0.00000637
Si      -2.47647946       0.16543196      -3.61269077  T      -0.00015109       0.00006808       0.00017496
Si      -0.86515019       4.58639943      -3.91812424  T       0.00024375       0.00022632      -0.00007405
Si      -0.41019496       4.04894244      -1.70296689  T      -0.00014050      -0.00001557       0.00031757
Si       1.36173076       2.10931453      -5.77706409  T      -0.00014279      -0.00042416       0.00001216
Si       1.31612783       0.82059881      -3.82927315  T      -0.00000418      -0.00059793       0.00029740
Si       2.59865171       4.75722693      -3.72291259  T      -0.00021631       0.00015039      -0.00011879
Si       2.62440697       3.50323900      -1.58510000  T       0.00009611       0.00002401       0.00016002
Si       4.31960897       5.47955343      -2.15632065  T      -0.00010861      -0.00011750       0.00070353
Si       4.28148314       5.87623105       1.46618027  T      -0.00012966      -0.00013157       0.00019622
Si      -3.31433922      -5.87623101       1.46618026  T       0.00012966       0.00013157       0.00019622
Si      -2.47082066      -6.92308164       3.41048419  T       0.00018502      -0.00005825      -0.00038577
Si       0.42298950       6.16126443      -0.95966228  T      -0.00031711       0.00039478       0.00007005
Si      -0.68476865       5.73797139       1.22839815  T       0.00018077       0.00008987       0.00004162
Si      -0.55153582      -4.49229864       1.72469005  T      -0.00062252      -0.00051601      -0.00002517
Si      -0.42398382      -5.83928080       3.69526509  T      -0.00028553      -0.00016740      -0.00005546
Si       2.58931476       5.50202438      -0.30028501  T       0.00006193       0.00026962       0.00011384
Si       1.51867974       4.49229867       1.72469005  T       0.00062252       0.00051602      -0.00002517
Si       1.65191257      -5.73797136       1.22839815  T      -0.00018077      -0.00008987       0.00004162
Si       1.70378923      -6.76441942       3.40588322  T       0.00022758      -0.00016203       0.00017489
Si       3.64927965      -3.50539853      -1.39246674  T      -0.00013732       0.00016254      -0.00011511
Si       2.97735415      -3.79513317       0.91074475  T      -0.00000099      -0.00022144      -0.00019417
Si      -3.18676369      -2.34340226      -0.03701424  T       0.00007466       0.00016624      -0.00012545
Si      -4.42040550      -0.74285692       4.23852504  T      -0.00011873       0.00024479       0.00058963
Si      -1.65726305      -3.50323897      -1.58510000  T      -0.00009611      -0.00002402       0.00016002
Si      -2.83062529      -3.61703806       1.90425238  T       0.00006523      -0.00020361       0.00005039
Si      -0.21068614      -0.92055977       0.22151437  T      -0.00017170       0.00040473      -0.00013856
Si      -1.06186146      -0.69764038       4.00579137  T       0.00006467      -0.00015306      -0.00033721
Si       1.37733889      -4.04894240      -1.70296689  T       0.00014050       0.00001557       0.00031757
Si       0.91634581      -2.65752535       1.34681418  T      -0.00036188      -0.00029460      -0.00025386
Si       3.38590235       0.16565349       0.39460622  T      -0.00018224       0.00049641      -0.00018489
Si       3.85533881      -0.36611303       2.71629532  T       0.00023576      -0.00018733       0.00033034
Si       5.00627517       3.11235919      -2.11070658  T      -0.00015363      -0.00013524      -0.00009429
Si       4.15390761       2.34340229      -0.03701424  T      -0.00007466      -0.00016623      -0.00012546
Si      -2.01021023       3.79513320       0.91074475  T       0.00000100       0.00022144      -0.00019417
Si      -2.48732790       2.65143858       2.97674582  T      -0.00031140      -0.00026213       0.00005091
Si      -2.00299013       1.23668570      -1.55283662  T       0.00022065       0.00023148       0.00005090
Si      -2.41875842      -0.16565346       0.39460622  T       0.00018223      -0.00049643      -0.00018490
Si       0.05079811       2.65752538       1.34681418  T       0.00036188       0.00029460      -0.00025386
Si      -0.14855419       1.71603953       3.50457752  T       0.00041335      -0.00009404      -0.00003706
Si       0.48500193       1.82514795      -1.82136402  T      -0.00017451      -0.00011092      -0.00011229
Si       1.17783007       0.92055980       0.22151436  T       0.00017171      -0.00040473      -0.00013855
Si       3.79776921       3.61703809       1.90425238  T      -0.00006523       0.00020360       0.00005039
Si       3.81508487       2.44739728       3.96100993  T       0.00000774       0.00021242      -0.00040058
Si       3.43796458       6.92308167       3.41048420  T      -0.00018502       0.00005825      -0.00038577
Si       4.50185027       6.02310245       5.31632906  T       0.00012223       0.00003118      -0.00017106
Si      -3.53470635      -6.02310243       5.31632906  T      -0.00012223      -0.00003117      -0.00017106
Si      -2.66716807      -7.08284694       7.22248829  T       0.00010622       0.00003030       0.00000112
Si      -0.73664531       6.76441944       3.40588323  T      -0.00022758       0.00016203       0.00017489
Si      -1.66358575       5.39365321       5.17090901  T       0.00015510      -0.00018783       0.00012274
Si      -0.47536323      -4.81981626       5.82420404  T       0.00039442       0.00003097       0.00003809
Si      -0.42726345      -6.43992983       7.73011853  T       0.00008086       0.00006191       0.00038303
Si       1.39112774       5.83928083       3.69526510  T       0.00028553       0.00016740      -0.00005546
Si       1.44250715       4.81981628       5.82420405  T      -0.00039442      -0.00003097       0.00003809
Si       2.63072967      -5.39365319       5.17090900  T      -0.00015511       0.00018782       0.00012274
Si       1.84009468      -5.59401946       7.42408188  T       0.00013531      -0.00015109       0.00001385
Si       3.45447182      -2.65143855       2.97674582  T       0.00031140       0.00026212       0.00005091
Si       3.96137923      -3.41881825       5.16330499  T      -0.00004985       0.00007968       0.00021409
Si      -3.66572290      -0.25697409       6.47046005  T      -0.00001839       0.00010994      -0.00016525
Si      -4.42184649      -1.65296899       8.29607023  T       0.00055207      -0.00015190      -0.00002936
Si      -2.84794095      -2.44739726       3.96100993  T      -0.00000774      -0.00021243      -0.00040058
Si      -2.61616279      -3.91395089       5.75479971  T      -0.00027526       0.00064472      -0.00001723
Si      -1.27400812      -0.39222753       6.37731744  T      -0.00021192       0.00034704      -0.00004296
Si      -0.56109793      -1.92320158       8.23460002  T      -0.00002765      -0.00018186      -0.00009747
Si       1.11569811      -1.71603950       3.50457752  T      -0.00041335       0.00009404      -0.00003706
Si       1.31469534      -3.38726608       5.16241660  T       0.00009595       0.00004957       0.00016091
Si       2.45298721      -1.97934506       6.67586361  T      -0.00028067       0.00050123       0.00027317
Si       3.57288640      -2.49623352       8.92772875  T      -0.00033786      -0.00005308      -0.00034653
Si       5.38754942       0.74285694       4.23852504  T       0.00011873      -0.00024479       0.00058964
Si       4.63286682       0.25697411       6.47046005  T       0.00001839      -0.00010993      -0.00016526
Si      -2.99423531       3.41881827       5.16330500  T       0.00004986      -0.00007967       0.00021409
Si      -3.90323659       2.07396425       6.94972908  T       0.00007332      -0.00038086      -0.00025767
Si      -2.88819488       0.36611306       2.71629532  T      -0.00023575       0.00018734       0.00033034
Si      -1.48584328       1.97934508       6.67586361  T       0.00028066      -0.00050124       0.00027317
Si      -0.34755141       3.38726610       5.16241660  T      -0.00009595      -0.00004956       0.00016090
Si      -0.44686012       3.45786267       8.39262234  T      -0.00019227       0.00009384       0.00035488
Si       2.02900538       0.69764040       4.00579137  T      -0.00006466       0.00015306      -0.00033721
Si       2.24115205       0.39222754       6.37731743  T       0.00021192      -0.00034704      -0.00004296
Si       3.58330671       3.91395091       5.75479971  T       0.00027525      -0.00064474      -0.00001719
Si       3.57553571       3.10774142       7.95918508  T       0.00012835       0.00009670      -0.00002579
Si       3.63431200       7.08284695       7.22248830  T      -0.00010622      -0.00003029       0.00000112
Si       3.39427232       5.30175423       8.79785220  T      -0.00051277      -0.00004094       0.00060756
Si      -2.42712839      -5.30175422       8.79785219  T       0.00051278       0.00004089       0.00060759
Si      -3.55381511      -7.19082045      12.33663832  T      -0.00011295       0.00067434      -0.00004919
Si      -0.87295074       5.59401948       7.42408188  T      -0.00013531       0.00015109       0.00001385
Si      -2.24496302       6.04273725       9.43961934  T       0.00010330       0.00022274      -0.00025877
Si      -0.47041234      -6.07921270      10.16933847  T       0.00050052      -0.00069981       0.00015474
Si      -1.19199712      -7.15927385      12.22749901  T      -0.00016216       0.00015043      -0.00011170
Si       1.39440738       6.43992985       7.73011853  T      -0.00008087      -0.00006191       0.00038303
Si       1.43755627       6.07921271      10.16933847  T      -0.00050053       0.00069981       0.00015474
Si       3.21210695      -6.04273724       9.43961934  T      -0.00010330      -0.00022274      -0.00025878
Si       3.17070116      -5.83749998      11.87177159  T      -0.00005046       0.00033759      -0.00039161
Si       4.87038052      -2.07396423       6.94972907  T      -0.00007332       0.00038084      -0.00025768
Si       4.77232899      -4.32187369       9.86434508  T      -0.00004249       0.00029704       0.00002549
Si      -4.33438570      -0.62142655      10.41541663  T      -0.00022630       0.00019183      -0.00006394
Si      -4.40511110      -1.99845802      12.33791508  T      -0.00014043      -0.00002370       0.00015946
Si      -2.60839177      -3.10774141       7.95918508  T      -0.00012841      -0.00009661      -0.00002578
Si      -2.60767945      -5.36423596      11.14856820  T      -0.00002519      -0.00028262       0.00020516
Si      -0.49843202      -0.66528227      10.28993982  T      -0.00052590      -0.00069084       0.00034945
Si      -0.56477414      -1.99932812      12.30370966  T      -0.00003659      -0.00038081      -0.00017295
Si       1.41400405      -3.45786266       8.39262233  T       0.00019226      -0.00009384       0.00035488
Si       1.41254733      -4.72146210      10.50170458  T      -0.00004316      -0.00019450       0.00034740
Si       3.38661269      -0.71598349      10.44315678  T      -0.00045668       0.00013545       0.00001879
Si       3.24733756      -2.00283827      12.38363246  T      -0.00013099       0.00041920       0.00007014
Si       5.38899042       1.65296900       8.29607022  T      -0.00055201       0.00015180      -0.00002928
Si       5.30152963       0.62142654      10.41541663  T       0.00022661      -0.00019151      -0.00006395
Si      -3.80518506       4.32187370       9.86434509  T       0.00004250      -0.00029705       0.00002541
Si      -3.58220094       3.92870983      12.21042496  T      -0.00025176       0.00041147       0.00007006
Si      -2.60574246       2.49623352       8.92772875  T       0.00033785       0.00005323      -0.00034660
Si      -2.41946874       0.71598352      10.44315679  T       0.00045636      -0.00013600       0.00001857
Si      -0.44540340       4.72146211      10.50170459  T       0.00004316       0.00019452       0.00034738
Si      -0.38221072       3.36487339      12.42029542  T      -0.00021293      -0.00038692      -0.00020769
Si       1.52824187       1.92320159       8.23460002  T       0.00002765       0.00018185      -0.00009747
Si       1.46557595       0.66528227      10.28993982  T       0.00052589       0.00069086       0.00034944
Si       3.57482339       5.36423596      11.14856820  T       0.00002520       0.00028263       0.00020520
Si       3.47043530       3.37674827      12.43344716  T      -0.00016947      -0.00029114      -0.00043407
Si       4.52095905       7.19082045      12.33663832  T       0.00011294      -0.00067435      -0.00004920
Si       5.31929168       6.15486635      14.29438745  F      -0.55360712       0.04437758       0.36388264
Si      -4.35214774      -6.15486635      14.29438745  F       0.55360712      -0.04437758       0.36388264
Si      -4.35214774      -7.52261443      16.22867533  F       0.14060025       0.62289981       0.10501930
Si      -2.20355723       5.83749998      11.87177159  T       0.00005051      -0.00033752      -0.00039163
Si      -2.41785985       6.15486635      14.29438745  F      -0.06860904      -0.27257055       0.29250522
Si      -0.48357197      -6.15486635      14.29438745  F      -0.12737816       0.22783366       0.09054261
Si      -0.48357197      -7.52261443      16.22867533  F      -0.02914274       0.06185405       0.06229026
Si       2.15914106       7.15927385      12.22749901  T       0.00016217      -0.00015044      -0.00011170
Si       1.45071591       6.15486635      14.29438745  F       0.12737816      -0.22783366       0.09054261
Si       3.38500379      -6.15486635      14.29438745  F       0.06860904       0.27257055       0.29250521
Si       3.38500379      -7.52261443      16.22867533  F      -0.21780391       0.11171481      -0.00431777
Si       4.54934487      -3.92870980      12.21042496  T       0.00025201      -0.00041196       0.00007001
Si       5.31929168      -4.78711827      14.29438745  F      -0.21061258      -0.08696601       0.18171090
Si      -4.35214774      -0.68387404      14.29438745  F       0.09269448      -0.05761063       0.08448381
Si      -4.35214774      -2.05162212      16.22867533  F       0.10277351       0.18865583      -0.06804367
Si      -2.50329136      -3.37674827      12.43344716  T       0.00016940       0.00029118      -0.00043407
Si      -2.41785985      -4.78711827      14.29438745  F      -0.26353306       0.00141855       0.55881761
Si      -0.48357197      -0.68387404      14.29438745  F      -0.02581591       0.08152330      -0.10463402
Si      -0.48357197      -2.05162212      16.22867533  F       0.08885168      -0.02802313      -0.06398835
Si       1.34935467      -3.36487338      12.42029542  T       0.00021274       0.00038680      -0.00020769
Si       1.45071591      -4.78711827      14.29438745  F      -0.06316747      -0.10068041       0.09495890
Si       3.38500379      -0.68387404      14.29438745  F       0.12444428       0.19069143       0.38537899
Si       3.38500379      -2.05162212      16.22867533  F       0.13348849      -0.09650824      -0.10498861
Si       5.37225504       1.99845803      12.33791508  T       0.00014047       0.00002359       0.00015940
Si       5.31929168       0.68387404      14.29438745  F      -0.09269448       0.05761064       0.08448380
Si      -4.35214774       4.78711827      14.29438745  F       0.21061255       0.08696605       0.18171095
Si      -4.35214774       3.41937020      16.22867533  F       0.07866531       0.03380819      -0.04067117
Si      -2.28019361       2.00283824      12.38363245  T       0.00013091      -0.00041843       0.00007033
Si      -2.41785985       0.68387404      14.29438745  F      -0.12444429      -0.19069152       0.38537905
Si      -0.48357197       4.78711827      14.29438745  F       0.06316747       0.10068042       0.09495892
Si      -0.48357197       3.41937020      16.22867533  F       0.13069557      -0.05036012       0.06102710
Si       1.53191807       1.99932812      12.30370966  T       0.00003665       0.00038082      -0.00017295
Si       1.45071591       0.68387404      14.29438745  F       0.02581590      -0.08152330      -0.10463404
Si       3.38500379       4.78711827      14.29438745  F       0.26353306      -0.00141855       0.55881761
Si       3.38500379       3.41937020      16.22867533  F       0.14592925      -0.09955536       0.06537083
Si       5.31929168       7.52261443      16.22867533  F      -0.14060025      -0.62289982       0.10501930
Si       5.31929168       6.15486635      18.16296322  F      -0.37576556       0.69188401       0.19508235
Si      -4.35214774      -6.15486635      18.16296322  F       0.37576556      -0.69188401       0.19508235
Si      -4.35214774      -7.52261443      20.09725110  F       0.54464289       0.73763499      -1.08395350
Si      -2.41785985       7.52261443      16.22867533  F       0.21780390      -0.11171481      -0.00431777
Si      -2.41785985       6.15486635      18.16296322  F       0.01492286       0.24281399       0.18413162
Si      -0.48357197      -6.15486635      18.16296322  F       0.09755654      -0.28143197       0.09052407
Si      -0.48357197      -7.52261443      20.09725110  F       0.01060878       0.54941907      -0.76154173
Si       1.45071591       7.52261443      16.22867533  F       0.02914274      -0.06185405       0.06229026
Si       1.45071591       6.15486635      18.16296322  F      -0.09755654       0.28143197       0.09052407
Si       3.38500379      -6.15486635      18.16296322  F      -0.01492286      -0.24281399       0.18413162
Si       3.38500379      -7.52261443      20.09725110  F      -0.39141913       0.57732581      -0.84324644
Si       5.31929168      -3.41937020      16.22867533  F      -0.07866531      -0.03380820      -0.04067117
Si       5.31929168      -4.78711827      18.16296322  F      -0.21921124       0.25791869       0.22252872
Si      -4.35214774      -0.68387404      18.16296322  F       0.16997314      -0.33061103       0.19928514
Si      -4.35214774      -2.05162212      20.09725110  F       0.81312514      -0.01196771      -0.80028461
Si      -2.41785985      -3.41937020      16.22867533  F      -0.14592925       0.09955536       0.06537083
Si      -2.41785985      -4.78711827      18.16296322  F      -0.12160797      -0.07356338       0.18417260
Si      -0.48357197      -0.68387404      18.16296322  F       0.11345425      -0.04389522       0.13109970
Si      -0.48357197      -2.05162212      20.09725110  F       0.08980873      -0.23422116      -0.13887318
Si       1.45071591      -3.41937020      16.22867533  F      -0.13069557       0.05036012       0.06102710
Si       1.45071591      -4.78711827      18.16296322  F      -0.11699165      -0.00815881       0.22344434
Si       3.38500379      -0.68387404      18.16296322  F       0.07356709      -0.00212905       0.11075595
Si       3.38500379      -2.05162212      20.09725110  F       0.18304678      -0.32642338      -0.17326577
Si       5.31929168       2.05162212      16.22867533  F      -0.10277352      -0.18865584      -0.06804367
Si       5.31929168       0.68387404      18.16296322  F      -0.16997314       0.33061104       0.19928514
Si      -4.35214774       4.78711827      18.16296322  F       0.21921124      -0.25791868       0.22252872
Si      -4.35214774       3.41937020      20.09725110  F       0.77443305      -0.02604698      -0.78717554
Si      -2.41785985       2.05162212      16.22867533  F      -0.13348849       0.09650825      -0.10498862
Si      -2.41785985       0.68387404      18.16296322  F      -0.07356709       0.00212905       0.11075595
Si      -0.48357197       4.78711827      18.16296322  F       0.11699165       0.00815881       0.22344434
Si      -0.48357197       3.41937020      20.09725110  F       0.08844059      -0.22092166      -0.09997505
Si       1.45071591       2.05162212      16.22867533  F      -0.08885168       0.02802313      -0.06398834
Si       1.45071591       0.68387404      18.16296322  F      -0.11345425       0.04389523       0.13109970
Si       3.38500379       4.78711827      18.16296322  F       0.12160797       0.07356338       0.18417260
Si       3.38500379       3.41937020      20.09725110  F       0.23204825      -0.30716550      -0.14033464
