216
Lattice="11.605727294873521 0.0 0.0 0.0 13.401139555673227 0.0 0.0 0.0 28.428109966331448" Properties=species:S:1:pos:R:3:forces:R:3:energies:R:1 energy=-1165.333968614812 stress="0.013444230994708718 -9.21371013563705e-18 2.511390082065808e-20 -9.21371013563705e-18 0.01369922587475431 -3.502729585617836e-05 2.511390082065808e-20 -3.502729585617836e-05 0.011442825752675382" free_energy=-1165.333968614812 pbc="T T T"
Si       0.00000000      13.39199920      21.00010990      -0.00000000      -0.00009717       0.00011529      -5.38681998
Si       0.00000000      13.37734331      23.38410270      -0.00000000      -0.00003968      -0.00003069      -5.37284259
Si       0.00000000       2.23127087      24.14048871      -0.00000000      -0.00004758       0.00000533      -5.38797643
Si       0.00000000       2.24757774      26.50298887      -0.00000000      -0.00006455      -0.00013692      -5.35432137
Si       0.00000000       4.54797263      27.23431315      -0.00000000       0.00005697      -0.00006112      -5.30198844
Si      11.60572729       4.52276116       1.15699954       0.00000000       0.00010132      -0.00002080      -5.38109720
Si       1.98718424       1.11199751      27.25177689       0.00000462      -0.00004353       0.00016096      -5.34334971
Si       1.98718424       1.12152575       1.17633308       0.00000462       0.00004353      -0.00016096      -5.34334971
Si       1.93544341       3.35090797      20.98015154       0.00002684       0.00000698       0.00007359      -5.38291290
Si       1.93992200       3.35934202      23.35649500       0.00002477      -0.00002836      -0.00002883      -5.37373463
Si       1.95867229       5.60441858      24.14414013       0.00009047      -0.00000648      -0.00005044      -5.38750644
Si       2.03870503       5.66661435      26.49599434      -0.00009416      -0.00010004       0.00011611      -5.34382897
Si       3.86824257       0.00117464      20.99700007       0.00005414      -0.00004439      -0.00006260      -5.38570573
Si       3.87052567       0.00161430      23.37834484       0.00002854      -0.00001421      -0.00001804      -5.37035998
Si       3.88143740       2.26001753      24.16234837      -0.00003873      -0.00001197      -0.00011366      -5.38237331
Si       3.92239293       2.36020070      26.52840803      -0.00003920      -0.00001416       0.00000243      -5.27656497
Si       4.13092043       4.77833660      27.22498855       0.00011230      -0.00002974       0.00004843      -5.30995021
Si       3.99875670       4.85408007       1.18352568       0.00004395       0.00005846       0.00009205      -5.32326347
Si       5.80286365       1.09680432      27.25281024      -0.00000000      -0.00004958      -0.00002037      -5.33460485
Si       5.80286365       1.13671894       1.17529972       0.00000000       0.00004958       0.00002037      -5.33460485
Si       5.80286365       3.36823439      21.01291008       0.00000000       0.00001225       0.00005569      -5.37206131
Si       5.80286365       3.42013388      23.40951453       0.00000000      -0.00005711      -0.00003989      -5.32588884
Si       5.80286365       5.65469002      24.36871143       0.00000000      -0.00004615       0.00010167      -5.43192362
B        5.80286365       5.90354617      26.45539601       0.00000000       0.00005474       0.00008960      -6.32148373
Si       7.73748472       0.00117464      20.99700007      -0.00005414      -0.00004439      -0.00006260      -5.38570573
Si       7.73520162       0.00161430      23.37834484      -0.00002854      -0.00001421      -0.00001804      -5.37035998
Si       7.72428989       2.26001753      24.16234837       0.00003873      -0.00001197      -0.00011366      -5.38237331
Si       7.68333436       2.36020070      26.52840803       0.00003920      -0.00001416       0.00000243      -5.27656497
Si       7.47480687       4.77833660      27.22498855      -0.00011230      -0.00002974       0.00004843      -5.30995021
Si       7.60697059       4.85408007       1.18352568      -0.00004395       0.00005846       0.00009205      -5.32326347
Si       9.61854305       1.11199751      27.25177689      -0.00000462      -0.00004353       0.00016096      -5.34334971
Si       9.61854305       1.12152575       1.17633308      -0.00000462       0.00004353      -0.00016096      -5.34334971
Si       9.67028389       3.35090797      20.98015154      -0.00002684       0.00000698       0.00007359      -5.38291290
Si       9.66580529       3.35934202      23.35649500      -0.00002477      -0.00002836      -0.00002883      -5.37373463
Si       9.64705501       5.60441858      24.14414013      -0.00009047      -0.00000648      -0.00005044      -5.38750644
Si       9.56702226       5.66661435      26.49599434       0.00009416      -0.00010004       0.00011611      -5.34382897
Si       0.00000000       6.70240675      20.98754680       0.00000000      -0.00014793       0.00003661      -5.38061151
Si       0.00000000       6.70643775      23.36569284       0.00000000      -0.00012272       0.00005214      -5.37108122
Si       0.00000000       8.92295720      24.20389101      -0.00000000      -0.00012910      -0.00008760      -5.38051414
Si       0.00000000       8.85403540      26.57925211      -0.00000000      -0.00004410       0.00006996      -5.17363699
Si       0.00000000      11.11190165      27.27111042      -0.00000000      -0.00010132       0.00002080      -5.38109720
Si      11.60572729      11.08669019       1.19379682       0.00000000      -0.00005697       0.00006112      -5.30198844
Si       2.28471470       7.90591539      27.23647647       0.00007420       0.00004426      -0.00003150      -5.28016251
Si       2.28471470       7.72874743       1.19163350       0.00007420      -0.00004426       0.00003150      -5.28016251
Si       1.94449164      10.03849584      21.03399355       0.00006191      -0.00008182      -0.00002281      -5.37223975
Si       1.97784740      10.00585106      23.43789058      -0.00005034      -0.00006306      -0.00004878      -5.32365204
Si       1.94929318      12.25354280      24.18183139       0.00005438      -0.00007303      -0.00014157      -5.39711296
Si       2.02698299      12.17108824      26.55054014       0.00007773       0.00005883       0.00005269      -5.26563290
Si       3.87616345       6.70587338      21.02221478       0.00002749      -0.00003621      -0.00001333      -5.35767977
Si       3.90512904       6.72409785      23.42254755      -0.00007804      -0.00004809       0.00000687      -5.34391584
Si       3.92534112       8.89710419      24.38204178       0.00000946       0.00000760       0.00010726      -5.43639238
B        4.13451573       8.77356546      26.46785692      -0.00002238       0.00001396      -0.00007621      -6.28907523
Si       3.99875670      10.78058274      27.24458429       0.00004395      -0.00005846      -0.00009205      -5.32326347
Si       4.13092043      10.85632622       1.20312141       0.00011230       0.00002974      -0.00004843      -5.30995021
B        5.80286365       7.81817147      26.55449199      -0.00000000      -0.00000443      -0.00001362      -5.75144776
B        5.80286365       7.81649134       1.87361798       0.00000000       0.00000443       0.00001362      -5.75144776
Si       5.80286365      10.04245764      21.03243420      -0.00000000       0.00008769      -0.00015584      -5.35916282
Si       5.80286365      10.00978749      23.43487280       0.00000000       0.00009863      -0.00000410      -5.34115827
Si       5.80286365      12.25715269      24.15955003       0.00000000      -0.00011084      -0.00009990      -5.40032042
Si       5.80286365      12.15542037      26.51232982      -0.00000000      -0.00004912      -0.00009022      -5.33037606
Si       7.72956384       6.70587338      21.02221478      -0.00002749      -0.00003621      -0.00001333      -5.35767977
Si       7.70059826       6.72409785      23.42254755       0.00007804      -0.00004809       0.00000687      -5.34391584
Si       7.68038618       8.89710419      24.38204178      -0.00000946       0.00000760       0.00010726      -5.43639238
B        7.47121156       8.77356546      26.46785692       0.00002238       0.00001396      -0.00007621      -6.28907523
Si       7.60697059      10.78058274      27.24458429      -0.00004395      -0.00005846      -0.00009205      -5.32326347
Si       7.47480687      10.85632622       1.20312141      -0.00011230       0.00002974      -0.00004843      -5.30995021
Si       9.32101260       7.90591539      27.23647647      -0.00007420       0.00004426      -0.00003150      -5.28016251
Si       9.32101260       7.72874743       1.19163350      -0.00007420      -0.00004426       0.00003150      -5.28016251
Si       9.66123566      10.03849584      21.03399355      -0.00006191      -0.00008182      -0.00002281      -5.37223975
Si       9.62787989      10.00585106      23.43789058       0.00005034      -0.00006306      -0.00004878      -5.32365204
Si       9.65643412      12.25354280      24.18183139      -0.00005438      -0.00007303      -0.00014157      -5.39711296
Si       9.57874431      12.17108824      26.55054014      -0.00007773       0.00005883       0.00005269      -5.26563290
Si       0.00000000      13.38708508       1.92512110      -0.00000000       0.00006455       0.00013692      -5.35432137
Si       0.00000000       0.00225239       4.28762125       0.00000000       0.00004758      -0.00000533      -5.38797643
Si       0.00000000       2.25731950       5.04400726      -0.00000000       0.00003968       0.00003069      -5.37284259
Si       0.00000000       2.24266361       7.42800007      -0.00000000       0.00009717      -0.00011529      -5.38681998
Si       0.00000000       4.48283217       8.20978748       0.00000000       0.00011915       0.00004168      -5.37696265
Si       0.00000000       4.47277351      10.60422313      -0.00000000       0.00011892      -0.00006244      -5.38002016
Si       1.93276132       1.12078161       8.23844614       0.00003219       0.00002600      -0.00003501      -5.37985593
Si       1.93389777       1.11835700      10.62243513      -0.00000808      -0.00000731      -0.00009877      -5.38376917
Si       2.02698299       3.46357457       1.87756983       0.00007773      -0.00005883      -0.00005269      -5.26563290
Si       1.94929318       3.38112001       4.24627857       0.00005438       0.00007303       0.00014157      -5.39711296
Si       1.97784740       5.62881175       4.99021939      -0.00005034       0.00006306       0.00004878      -5.32365204
Si       1.94449164       5.59616697       7.39411641       0.00006191       0.00008182       0.00002281      -5.37223975
Si       3.92239293      13.27446212       1.89970194      -0.00003920       0.00001416      -0.00000243      -5.27656497
Si       3.88143740      13.37464529       4.26576160      -0.00003873       0.00001197       0.00011366      -5.38237331
Si       3.87052567       2.23190896       5.04976513       0.00002854       0.00001421       0.00001804      -5.37035998
Si       3.86824257       2.23234862       7.43110990       0.00005414       0.00004439       0.00006260      -5.38570573
Si       3.87134550       4.47316291       8.21656440      -0.00000850       0.00004079      -0.00002066      -5.37921223
Si       3.86910412       4.46948846      10.60714313       0.00005128       0.00005227      -0.00004497      -5.38150893
Si       5.80286365       1.10691522       8.22791701       0.00000000       0.00005417      -0.00004390      -5.37671582
Si       5.80286365       1.11386271      10.61628425       0.00000000      -0.00008113      -0.00008310      -5.38262378
Si       5.80286365       3.47924245       1.91578014       0.00000000       0.00004912       0.00009022      -5.33037606
Si       5.80286365       3.37751013       4.26855993      -0.00000000       0.00011084       0.00009990      -5.40032042
Si       5.80286365       5.62487532       4.99323716      -0.00000000      -0.00009863       0.00000410      -5.34115827
Si       5.80286365       5.59220517       7.39567576       0.00000000      -0.00008769       0.00015584      -5.35916282
Si       7.68333436      13.27446212       1.89970194       0.00003920       0.00001416      -0.00000243      -5.27656497
Si       7.72428989      13.37464529       4.26576160       0.00003873       0.00001197       0.00011366      -5.38237331
Si       7.73520162       2.23190896       5.04976513      -0.00002854       0.00001421       0.00001804      -5.37035998
Si       7.73748472       2.23234862       7.43110990      -0.00005414       0.00004439       0.00006260      -5.38570573
Si       7.73438179       4.47316291       8.21656440       0.00000850       0.00004079      -0.00002066      -5.37921223
Si       7.73662318       4.46948846      10.60714313      -0.00005128       0.00005227      -0.00004497      -5.38150893
Si       9.67296598       1.12078161       8.23844614      -0.00003219       0.00002600      -0.00003501      -5.37985593
Si       9.67182952       1.11835700      10.62243513       0.00000808      -0.00000731      -0.00009877      -5.38376917
Si       9.57874431       3.46357457       1.87756983      -0.00007773      -0.00005883      -0.00005269      -5.26563290
Si       9.65643412       3.38112001       4.24627857      -0.00005438       0.00007303       0.00014157      -5.39711296
Si       9.62787989       5.62881175       4.99021939       0.00005034       0.00006306       0.00004878      -5.32365204
Si       9.66123566       5.59616697       7.39411641      -0.00006191       0.00008182       0.00002281      -5.37223975
Si       0.00000000       6.78062742       1.84885785      -0.00000000       0.00004410      -0.00006996      -5.17363699
Si       0.00000000       6.71170561       4.22421895      -0.00000000       0.00012910       0.00008760      -5.38051414
Si       0.00000000       8.92822506       5.06241712      -0.00000000       0.00012272      -0.00005214      -5.37108122
Si       0.00000000       8.93225607       7.44056316       0.00000000       0.00014793      -0.00003661      -5.38061151
Si       0.00000000      11.16624648       8.24706726      -0.00000000      -0.00003314      -0.00014134      -5.37839596
Si       0.00000000      11.16660300      10.62903816      -0.00000000       0.00003116      -0.00013014      -5.38366747
Si       1.94106795       7.81893435       8.22543744      -0.00001190       0.00000111      -0.00009379      -5.38115541
Si       1.93637122       7.81740796      10.61359235       0.00005710       0.00001948       0.00005189      -5.38165812
Si       2.03870503       9.96804846       1.93211562      -0.00009416       0.00010004      -0.00011611      -5.34382897
Si       1.95867229      10.03024423       4.28396984       0.00009047       0.00000648       0.00005044      -5.38750644
Si       1.93992200      12.27532079       5.07161496       0.00002477       0.00002836       0.00002883      -5.37373463
Si       1.93544341      12.28375484       7.44795843       0.00002684      -0.00000698      -0.00007359      -5.38291290
B        4.13451573       6.86109736       1.96025305      -0.00002238      -0.00001396       0.00007621      -6.28907523
Si       3.92534112       6.73755862       4.04606818       0.00000946      -0.00000760      -0.00010726      -5.43639238
Si       3.90512904       8.91056497       5.00556242      -0.00007804       0.00004809      -0.00000687      -5.34391584
Si       3.87616345       8.92878943       7.40589519       0.00002749       0.00003621       0.00001333      -5.35767977
Si       3.87091638      11.15838759       8.23294945      -0.00000257       0.00008040       0.00005661      -5.37986953
Si       3.86973539      11.16481965      10.62001161       0.00000988       0.00004179      -0.00005294      -5.38213995
Si       5.80286365       7.81531747       8.21777626      -0.00000000       0.00007238      -0.00000056      -5.38813700
Si       5.80286365       7.81681377      10.60808509      -0.00000000       0.00003439      -0.00003315      -5.38080753
B        5.80286365       9.73111664       1.97271396      -0.00000000      -0.00005474      -0.00008960      -6.32148373
Si       5.80286365       9.97997279       4.05939854       0.00000000       0.00004615      -0.00010167      -5.43192362
Si       5.80286365      12.21452893       5.01859544      -0.00000000       0.00005711       0.00003989      -5.32588884
Si       5.80286365      12.26642843       7.41519989       0.00000000      -0.00001225      -0.00005569      -5.37206131
B        7.47121156       6.86109736       1.96025305       0.00002238      -0.00001396       0.00007621      -6.28907523
Si       7.68038618       6.73755862       4.04606818      -0.00000946      -0.00000760      -0.00010726      -5.43639238
Si       7.70059826       8.91056497       5.00556242       0.00007804       0.00004809      -0.00000687      -5.34391584
Si       7.72956384       8.92878943       7.40589519      -0.00002749       0.00003621       0.00001333      -5.35767977
Si       7.73481091      11.15838759       8.23294945       0.00000257       0.00008040       0.00005661      -5.37986953
Si       7.73599191      11.16481965      10.62001161      -0.00000988       0.00004179      -0.00005294      -5.38213995
Si       9.66465934       7.81893435       8.22543744       0.00001190       0.00000111      -0.00009379      -5.38115541
Si       9.66935607       7.81740796      10.61359235      -0.00005710       0.00001948       0.00005189      -5.38165812
Si       9.56702226       9.96804846       1.93211562       0.00009416       0.00010004      -0.00011611      -5.34382897
Si       9.64705501      10.03024423       4.28396984      -0.00009047       0.00000648       0.00005044      -5.38750644
Si       9.66580529      12.27532079       5.07161496      -0.00002477       0.00002836       0.00002883      -5.37373463
Si       9.67028389      12.28375484       7.44795843      -0.00002684      -0.00000698      -0.00007359      -5.38291290
Si       0.00000000       0.00081182      11.42992856       0.00000000       0.00001599       0.00010754      -5.38149645
Si       0.00000000      13.39986424      13.81560418       0.00000000       0.00004195      -0.00009092      -5.38297709
Si       0.00000000       2.23479858      14.61250578       0.00000000      -0.00004195       0.00009092      -5.38297709
Si       0.00000000       2.23271144      16.99818141       0.00000000      -0.00001599      -0.00010754      -5.38149645
Si       0.00000000       4.46805982      17.79907180       0.00000000      -0.00003116       0.00013014      -5.38366747
Si       0.00000000       4.46841634      20.18104271      -0.00000000       0.00003314       0.00014134      -5.37839596
Si       1.93389777       1.11516626      17.80567484      -0.00000808       0.00000731       0.00009877      -5.38376917
Si       1.93276132       1.11274165      20.18966382       0.00003219      -0.00002600       0.00003501      -5.37985593
Si       1.93371234       3.35493615      11.41723549       0.00000037       0.00004249       0.00003315      -5.38193533
Si       1.93447014       3.35220293      13.80572444      -0.00002396       0.00000481      -0.00001143      -5.38165403
Si       1.93488885       5.58540362      14.61258904       0.00007019       0.00003170       0.00000762      -5.38280281
Si       1.93581441       5.58582405      17.00016393       0.00005283      -0.00006963      -0.00003956      -5.38160067
Si       3.86870167      13.39963191      11.42599261      -0.00002667      -0.00008077       0.00001538      -5.38128853
Si       3.86861069      13.40000867      13.81384922      -0.00000038      -0.00001717      -0.00005078      -5.38237514
Si       3.86861069       2.23465414      14.61426074      -0.00000038       0.00001717       0.00005078      -5.38237514
Si       3.86870167       2.23503090      17.00211736      -0.00002667       0.00008077      -0.00001538      -5.38128853
Si       3.86973539       4.46984317      17.80809836       0.00000988      -0.00004179       0.00005294      -5.38213995
Si       3.87091638       4.47627523      20.19516051      -0.00000257      -0.00008040      -0.00005661      -5.37986953
Si       5.80286365       1.11966055      17.81182572       0.00000000       0.00008113       0.00008310      -5.38262378
Si       5.80286365       1.12660804      20.20019295      -0.00000000      -0.00005417       0.00004390      -5.37671582
Si       5.80286365       3.35092872      11.41643762      -0.00000000       0.00000564       0.00010756      -5.38127704
Si       5.80286365       3.35133597      13.80614773       0.00000000      -0.00000395       0.00002454      -5.38171974
Si       5.80286365       5.58477711      14.61476073       0.00000000      -0.00000000      -0.00002766      -5.38233014
Si       5.80286365       5.58719607      17.00369241      -0.00000000      -0.00006418       0.00006380      -5.38289947
Si       7.73702562      13.39963191      11.42599261       0.00002667      -0.00008077       0.00001538      -5.38128853
Si       7.73711661      13.40000867      13.81384922       0.00000038      -0.00001717      -0.00005078      -5.38237514
Si       7.73711661       2.23465414      14.61426074       0.00000038       0.00001717       0.00005078      -5.38237514
Si       7.73702562       2.23503090      17.00211736       0.00002667       0.00008077      -0.00001538      -5.38128853
Si       7.73599191       4.46984317      17.80809836      -0.00000988      -0.00004179       0.00005294      -5.38213995
Si       7.73481091       4.47627523      20.19516051       0.00000257      -0.00008040      -0.00005661      -5.37986953
Si       9.67182952       1.11516626      17.80567484       0.00000808       0.00000731       0.00009877      -5.38376917
Si       9.67296598       1.11274165      20.18966382      -0.00003219      -0.00002600       0.00003501      -5.37985593
Si       9.67201495       3.35493615      11.41723549      -0.00000037       0.00004249       0.00003315      -5.38193533
Si       9.67125716       3.35220293      13.80572444       0.00002396       0.00000481      -0.00001143      -5.38165403
Si       9.67083844       5.58540362      14.61258904      -0.00007019       0.00003170       0.00000762      -5.38280281
Si       9.66991288       5.58582405      17.00016393      -0.00005283      -0.00006963      -0.00003956      -5.38160067
Si       0.00000000       6.70266130      11.41830803      -0.00000000       0.00005453       0.00001225      -5.38263625
Si       0.00000000       6.70169257      13.80722291      -0.00000000      -0.00003214      -0.00001766      -5.38169180
Si       0.00000000       8.93297024      14.62088705       0.00000000       0.00003214       0.00001766      -5.38169180
Si       0.00000000       8.93200151      17.00980194       0.00000000      -0.00005453      -0.00001225      -5.38263625
Si       0.00000000      11.16188930      17.82388684      -0.00000000      -0.00011892       0.00006244      -5.38002016
Si       0.00000000      11.15183064      20.21832249      -0.00000000      -0.00011915      -0.00004168      -5.37696265
Si       1.93637122       7.81725486      17.81451762       0.00005710      -0.00001948      -0.00005189      -5.38165812
Si       1.94106795       7.81572847      20.20267252      -0.00001190      -0.00000111       0.00009379      -5.38115541
Si       1.93581441      10.04883877      11.42794603       0.00005283       0.00006963       0.00003956      -5.38160067
Si       1.93488885      10.04925920      13.81552093       0.00007019      -0.00003170      -0.00000762      -5.38280281
Si       1.93447014      12.28245989      14.62238553      -0.00002396      -0.00000481       0.00001143      -5.38165403
Si       1.93371234      12.27972667      17.01087448       0.00000037      -0.00004249      -0.00003315      -5.38193533
Si       3.87022820       6.70105062      11.41796869       0.00002917       0.00004427       0.00006593      -5.38349842
Si       3.86946722       6.70154126      13.80725128       0.00004899       0.00005452       0.00002221      -5.38191632
Si       3.86946722       8.93312155      14.62085868       0.00004899      -0.00005452      -0.00002221      -5.38191632
Si       3.87022820       8.93361220      17.01014127       0.00002917      -0.00004427      -0.00006593      -5.38349842
Si       3.86910412      11.16517436      17.82096684       0.00005128      -0.00005227       0.00004497      -5.38150893
Si       3.87134550      11.16149990      20.21154556      -0.00000850      -0.00004079       0.00002066      -5.37921223
Si       5.80286365       7.81784904      17.82002488       0.00000000      -0.00003439       0.00003315      -5.38080753
Si       5.80286365       7.81934535      20.21033371       0.00000000      -0.00007238       0.00000056      -5.38813700
Si       5.80286365      10.04746675      11.42441755      -0.00000000       0.00006418      -0.00006380      -5.38289947
Si       5.80286365      10.04988571      13.81334924      -0.00000000       0.00000000       0.00002766      -5.38233014
Si       5.80286365      12.28332685      14.62196224      -0.00000000       0.00000395      -0.00002454      -5.38171974
Si       5.80286365      12.28373410      17.01167235       0.00000000      -0.00000564      -0.00010756      -5.38127704
Si       7.73549910       6.70105062      11.41796869      -0.00002917       0.00004427       0.00006593      -5.38349842
Si       7.73626007       6.70154126      13.80725128      -0.00004899       0.00005452       0.00002221      -5.38191632
Si       7.73626007       8.93312155      14.62085868      -0.00004899      -0.00005452      -0.00002221      -5.38191632
Si       7.73549910       8.93361220      17.01014127      -0.00002917      -0.00004427      -0.00006593      -5.38349842
Si       7.73662318      11.16517436      17.82096684      -0.00005128      -0.00005227       0.00004497      -5.38150893
Si       7.73438179      11.16149990      20.21154556       0.00000850      -0.00004079       0.00002066      -5.37921223
Si       9.66935607       7.81725486      17.81451762      -0.00005710      -0.00001948      -0.00005189      -5.38165812
Si       9.66465934       7.81572847      20.20267252       0.00001190      -0.00000111       0.00009379      -5.38115541
Si       9.66991288      10.04883877      11.42794603      -0.00005283       0.00006963       0.00003956      -5.38160067
Si       9.67083844      10.04925920      13.81552093      -0.00007019      -0.00003170      -0.00000762      -5.38280281
Si       9.67125716      12.28245989      14.62238553       0.00002396      -0.00000481       0.00001143      -5.38165403
Si       9.67201495      12.27972667      17.01087448      -0.00000037      -0.00004249      -0.00003315      -5.38193533
