216
Lattice="11.605727294873521 0.0 0.0 0.0 13.401139555673227 0.0 0.0 0.0 28.428109966331448" Properties=species:S:1:pos:R:3:forces:R:3 energy=-1164.3598788755983 free_energy=-1164.3598788755983 pbc="T T T"
Si       0.00000000       0.00000000      20.92624761       0.00001211       0.00001149      -0.00002466
Si      11.60572729      13.40113956      23.29525678       0.00002058      -0.00004094       0.00009496
Si      11.60572729       2.23352326      24.08492650      -0.00001261      -0.00000777      -0.00003098
Si      11.60572729       2.23352326      26.45393566      -0.00000139      -0.00004589      -0.00005501
Si      11.60572729       4.46704652      27.24360538       0.00000613      -0.00001930      -0.00009973
Si       0.00000000       4.46704652       1.18450458       0.00000219      -0.00002150       0.00005856
Si       1.93428788       1.11676163      27.24360538       0.00003684      -0.00000356      -0.00007729
Si       1.93428788       1.11676163       1.18450458       0.00005249       0.00000040       0.00002940
Si       1.93428788       3.35028489      20.92624761       0.00006802       0.00000564      -0.00006287
Si       1.93428788       3.35028489      23.29525678      -0.00002173      -0.00002809      -0.00002266
Si       1.93428788       5.58380815      24.08492650       0.00004263       0.00001641      -0.00001067
Si       1.93428788       5.58380815      26.45393566       0.00003697      -0.00004023      -0.00004449
Si       3.86857576      13.40113956      20.92624761       0.00003203       0.00001086      -0.00003275
Si       3.86857576      13.40113956      23.29525678       0.00004573      -0.00000769      -0.00001886
Si       3.86857576       2.23352326      24.08492650       0.00001377       0.00003100      -0.00000560
Si       3.86857576       2.23352326      26.45393566       0.00007489       0.00000048      -0.00000861
Si       3.86857576       4.46704652      27.24360538      -0.00007010       0.00001421       0.00000140
Si       3.86857576       4.46704652       1.18450458       0.00000994      -0.00004410       0.00003943
Si       5.80286365       1.11676163      27.24360538      -0.00002387       0.00001295      -0.00005900
Si       5.80286365       1.11676163       1.18450458       0.00000927       0.00003782       0.00002694
Si       5.80286365       3.35028489      20.92624761      -0.00004490       0.00002662      -0.00005290
Si       5.80286365       3.35028489      23.29525678       0.00004157       0.00004002      -0.00000602
Si       5.80286365       5.58380815      24.08492650       0.00000253       0.00000252      -0.00011769
B        5.80286365       5.58380815      26.45393566      -0.00001636       0.00004384      -0.00007110
Si       7.73715153      13.40113956      20.92624761       0.00004481      -0.00002875       0.00001254
Si       7.73715153      13.40113956      23.29525678      -0.00006604       0.00004528      -0.00004699
Si       7.73715153       2.23352326      24.08492650      -0.00002059      -0.00001016      -0.00001039
Si       7.73715153       2.23352326      26.45393566      -0.00004697      -0.00001002      -0.00006791
Si       7.73715153       4.46704652      27.24360538       0.00006216      -0.00001730       0.00002562
Si       7.73715153       4.46704652       1.18450458      -0.00003902       0.00000629       0.00002381
Si       9.67143941       1.11676163      27.24360538      -0.00000907       0.00002874      -0.00004597
Si       9.67143941       1.11676163       1.18450458       0.00000188      -0.00003012       0.00000938
Si       9.67143941       3.35028489      20.92624761       0.00004759      -0.00003280      -0.00002212
Si       9.67143941       3.35028489      23.29525678       0.00003462      -0.00004442      -0.00003813
Si       9.67143941       5.58380815      24.08492650      -0.00001078       0.00002006      -0.00002173
Si       9.67143941       5.58380815      26.45393566       0.00006082      -0.00002102      -0.00001002
Si      11.60572729       6.70056978      20.92624761       0.00005021       0.00003173       0.00003599
Si      11.60572729       6.70056978      23.29525678       0.00001179      -0.00002483      -0.00000974
Si      11.60572729       8.93409304      24.08492650      -0.00002112       0.00006743       0.00003027
Si      11.60572729       8.93409304      26.45393566      -0.00002840       0.00006267      -0.00004196
Si      11.60572729      11.16761630      27.24360538      -0.00002303       0.00003868      -0.00004359
Si       0.00000000      11.16761630       1.18450458      -0.00005933       0.00002447       0.00008045
Si       1.93428788       7.81733141      27.24360538       0.00001332      -0.00007555      -0.00001770
Si       1.93428788       7.81733141       1.18450458       0.00002704       0.00000477       0.00005901
Si       1.93428788      10.05085467      20.92624761      -0.00001894      -0.00002981       0.00008904
Si       1.93428788      10.05085467      23.29525678      -0.00002824       0.00002692       0.00004724
Si       1.93428788      12.28437793      24.08492650      -0.00000360      -0.00000030       0.00005430
Si       1.93428788      12.28437793      26.45393566      -0.00003481       0.00000709      -0.00005140
Si       3.86857576       6.70056978      20.92624761       0.00000545      -0.00005731      -0.00000872
Si       3.86857576       6.70056978      23.29525678       0.00008613      -0.00001037      -0.00002584
Si       3.86857576       8.93409304      24.08492650       0.00001649      -0.00005889       0.00001477
B        3.86857576       8.93409304      26.45393566       0.00000987      -0.00002063      -0.00001940
Si       3.86857576      11.16761630      27.24360538       0.00000008       0.00002160      -0.00000508
Si       3.86857576      11.16761630       1.18450458       0.00005675      -0.00004411       0.00004429
B        5.80286365       7.81733141      27.24360538      -0.00001248      -0.00002606       0.00003416
B        5.80286365       7.81733141       1.18450458       0.00000468       0.00003772       0.00001467
Si       5.80286365      10.05085467      20.92624761       0.00004094      -0.00007603       0.00004397
Si       5.80286365      10.05085467      23.29525678       0.00006481      -0.00004056      -0.00008907
Si       5.80286365      12.28437793      24.08492650       0.00000037      -0.00003331       0.00002449
Si       5.80286365      12.28437793      26.45393566       0.00007546      -0.00000154      -0.00003526
Si       7.73715153       6.70056978      20.92624761      -0.00004508       0.00002096       0.00003787
Si       7.73715153       6.70056978      23.29525678      -0.00004698       0.00003621      -0.00005317
Si       7.73715153       8.93409304      24.08492650      -0.00003602      -0.00001584      -0.00006931
B        7.73715153       8.93409304      26.45393566      -0.00001936      -0.00000687      -0.00002128
Si       7.73715153      11.16761630      27.24360538      -0.00003789       0.00009327      -0.00000542
Si       7.73715153      11.16761630       1.18450458       0.00000012      -0.00001029       0.00001181
Si       9.67143941       7.81733141      27.24360538       0.00000868      -0.00004390       0.00001006
Si       9.67143941       7.81733141       1.18450458      -0.00000819       0.00001168       0.00002219
Si       9.67143941      10.05085467      20.92624761      -0.00002228       0.00003988       0.00004978
Si       9.67143941      10.05085467      23.29525678       0.00001766      -0.00001443       0.00006036
Si       9.67143941      12.28437793      24.08492650      -0.00001139      -0.00000469       0.00002736
Si       9.67143941      12.28437793      26.45393566       0.00000608      -0.00004813       0.00002195
Si      11.60572729      13.40113956       1.97417430      -0.00002066       0.00004584      -0.00000783
Si      11.60572729      13.40113956       4.34318347      -0.00001278       0.00000740      -0.00005553
Si      11.60572729       2.23352326       5.13285319       0.00004709      -0.00001450       0.00003545
Si      11.60572729       2.23352326       7.50186235      -0.00001578      -0.00001292      -0.00010195
Si      11.60572729       4.46704652       8.29153207       0.00002327      -0.00008623      -0.00008346
Si       0.00000000       4.46704652      10.66054124       0.00000813      -0.00008948      -0.00008319
Si       1.93428788       1.11676163       8.29153207       0.00002614       0.00000521      -0.00001176
Si       1.93428788       1.11676163      10.66054124       0.00002076       0.00001559      -0.00003550
Si       1.93428788       3.35028489       1.97417430       0.00004243       0.00000523      -0.00005529
Si       1.93428788       3.35028489       4.34318347       0.00008193      -0.00002197      -0.00005868
Si       1.93428788       5.58380815       5.13285319       0.00000913       0.00001782      -0.00007259
Si       1.93428788       5.58380815       7.50186235      -0.00001285      -0.00003370      -0.00006838
Si       3.86857576      13.40113956       1.97417430       0.00000023       0.00003866       0.00004347
Si       3.86857576      13.40113956       4.34318347       0.00003148       0.00001229      -0.00003528
Si       3.86857576       2.23352326       5.13285319       0.00007808       0.00002175       0.00000592
Si       3.86857576       2.23352326       7.50186235       0.00005524      -0.00000692      -0.00004077
Si       3.86857576       4.46704652       8.29153207       0.00005399      -0.00000119      -0.00002551
Si       3.86857576       4.46704652      10.66054124       0.00004001      -0.00001579      -0.00003001
Si       5.80286365       1.11676163       8.29153207       0.00003758       0.00003867       0.00004375
Si       5.80286365       1.11676163      10.66054124      -0.00001080       0.00007348      -0.00005162
Si       5.80286365       3.35028489       1.97417430       0.00001322      -0.00001404       0.00003579
Si       5.80286365       3.35028489       4.34318347      -0.00002267       0.00004237       0.00005196
Si       5.80286365       5.58380815       5.13285319       0.00001379      -0.00001291      -0.00002109
Si       5.80286365       5.58380815       7.50186235       0.00002434       0.00001827      -0.00003436
Si       7.73715153      13.40113956       1.97417430      -0.00008111      -0.00000428      -0.00001257
Si       7.73715153      13.40113956       4.34318347      -0.00005363      -0.00000604       0.00001034
Si       7.73715153       2.23352326       5.13285319      -0.00005659       0.00009176      -0.00005376
Si       7.73715153       2.23352326       7.50186235      -0.00002791       0.00002628      -0.00004573
Si       7.73715153       4.46704652       8.29153207      -0.00000366      -0.00001255       0.00002442
Si       7.73715153       4.46704652      10.66054124      -0.00000042      -0.00001102      -0.00006274
Si       9.67143941       1.11676163       8.29153207       0.00008600      -0.00003050       0.00006472
Si       9.67143941       1.11676163      10.66054124       0.00000184      -0.00000087      -0.00003513
Si       9.67143941       3.35028489       1.97417430      -0.00000040       0.00000641      -0.00004892
Si       9.67143941       3.35028489       4.34318347      -0.00006915       0.00000518      -0.00001399
Si       9.67143941       5.58380815       5.13285319       0.00001297       0.00002965      -0.00007063
Si       9.67143941       5.58380815       7.50186235      -0.00000966      -0.00004631      -0.00008227
Si      11.60572729       6.70056978       1.97417430      -0.00008589      -0.00003019       0.00002444
Si      11.60572729       6.70056978       4.34318347      -0.00002098      -0.00002426       0.00000656
Si      11.60572729       8.93409304       5.13285319      -0.00005120       0.00000231      -0.00000344
Si      11.60572729       8.93409304       7.50186235      -0.00004800      -0.00009710      -0.00000157
Si      11.60572729      11.16761630       8.29153207       0.00003259      -0.00002289       0.00005809
Si       0.00000000      11.16761630      10.66054124      -0.00001786      -0.00001127      -0.00000379
Si       1.93428788       7.81733141       8.29153207      -0.00003316       0.00002472       0.00001454
Si       1.93428788       7.81733141      10.66054124      -0.00002256      -0.00000518      -0.00000931
Si       1.93428788      10.05085467       1.97417430      -0.00007602       0.00001913       0.00000984
Si       1.93428788      10.05085467       4.34318347      -0.00000956      -0.00002235       0.00003268
Si       1.93428788      12.28437793       5.13285319       0.00004507      -0.00005894       0.00011340
Si       1.93428788      12.28437793       7.50186235      -0.00000442       0.00001556      -0.00002363
B        3.86857576       6.70056978       1.97417430      -0.00008820      -0.00002347       0.00001117
Si       3.86857576       6.70056978       4.34318347       0.00005428       0.00000115       0.00004400
Si       3.86857576       8.93409304       5.13285319      -0.00001777      -0.00003469       0.00006987
Si       3.86857576       8.93409304       7.50186235      -0.00000180       0.00000705      -0.00002154
Si       3.86857576      11.16761630       8.29153207       0.00002090      -0.00004115       0.00007348
Si       3.86857576      11.16761630      10.66054124      -0.00003614       0.00002106       0.00003049
Si       5.80286365       7.81733141       8.29153207       0.00002386      -0.00002740       0.00011338
Si       5.80286365       7.81733141      10.66054124       0.00002609       0.00002492       0.00004198
B        5.80286365      10.05085467       1.97417430       0.00000624       0.00010814       0.00003463
Si       5.80286365      10.05085467       4.34318347       0.00001538      -0.00002285       0.00001708
Si       5.80286365      12.28437793       5.13285319       0.00000378      -0.00000948       0.00001872
Si       5.80286365      12.28437793       7.50186235      -0.00002402       0.00012599      -0.00001775
B        7.73715153       6.70056978       1.97417430       0.00006937      -0.00002507       0.00003531
Si       7.73715153       6.70056978       4.34318347      -0.00007638       0.00006259       0.00007872
Si       7.73715153       8.93409304       5.13285319       0.00003615      -0.00004026       0.00006007
Si       7.73715153       8.93409304       7.50186235      -0.00001367       0.00002696      -0.00003770
Si       7.73715153      11.16761630       8.29153207       0.00011272      -0.00007925       0.00008904
Si       7.73715153      11.16761630      10.66054124       0.00001712       0.00002087       0.00002605
Si       9.67143941       7.81733141       8.29153207      -0.00002717       0.00000698       0.00000529
Si       9.67143941       7.81733141      10.66054124      -0.00001348      -0.00000757      -0.00004902
Si       9.67143941      10.05085467       1.97417430       0.00000898       0.00000119       0.00008514
Si       9.67143941      10.05085467       4.34318347      -0.00004686       0.00001643       0.00001802
Si       9.67143941      12.28437793       5.13285319       0.00005772      -0.00009046       0.00008707
Si       9.67143941      12.28437793       7.50186235      -0.00005533       0.00006182      -0.00004171
Si      11.60572729      13.40113956      11.45021096      -0.00004306      -0.00001365      -0.00005374
Si      11.60572729      13.40113956      13.81922012      -0.00004447      -0.00002410       0.00002879
Si      11.60572729       2.23352326      14.60888984      -0.00000931       0.00001480      -0.00003333
Si      11.60572729       2.23352326      16.97789901      -0.00005504      -0.00000194       0.00003705
Si      11.60572729       4.46704652      17.76756873       0.00006811      -0.00001742      -0.00002169
Si       0.00000000       4.46704652      20.13657789      -0.00000685       0.00003754      -0.00000840
Si       1.93428788       1.11676163      17.76756873       0.00005554      -0.00000134      -0.00007087
Si       1.93428788       1.11676163      20.13657789      -0.00002706       0.00001271       0.00002178
Si       1.93428788       3.35028489      11.45021096       0.00000284       0.00000308      -0.00004876
Si       1.93428788       3.35028489      13.81922012      -0.00000705      -0.00000784      -0.00006031
Si       1.93428788       5.58380815      14.60888984       0.00003413      -0.00000644      -0.00000045
Si       1.93428788       5.58380815      16.97789901      -0.00000058       0.00002599       0.00002295
Si       3.86857576      13.40113956      11.45021096      -0.00000434       0.00002162       0.00009495
Si       3.86857576      13.40113956      13.81922012      -0.00002463       0.00000600       0.00000284
Si       3.86857576       2.23352326      14.60888984       0.00000126      -0.00003821      -0.00003002
Si       3.86857576       2.23352326      16.97789901      -0.00002912      -0.00004915       0.00002552
Si       3.86857576       4.46704652      17.76756873       0.00007731      -0.00003198      -0.00003667
Si       3.86857576       4.46704652      20.13657789      -0.00006101       0.00002153      -0.00002709
Si       5.80286365       1.11676163      17.76756873      -0.00003849      -0.00002467      -0.00006422
Si       5.80286365       1.11676163      20.13657789      -0.00003448      -0.00002390      -0.00002017
Si       5.80286365       3.35028489      11.45021096       0.00005642       0.00000886      -0.00000172
Si       5.80286365       3.35028489      13.81922012      -0.00000368       0.00001123      -0.00003044
Si       5.80286365       5.58380815      14.60888984       0.00003009      -0.00002998       0.00003825
Si       5.80286365       5.58380815      16.97789901      -0.00003711      -0.00003144      -0.00005498
Si       7.73715153      13.40113956      11.45021096       0.00005320       0.00002100       0.00006378
Si       7.73715153      13.40113956      13.81922012       0.00004387      -0.00004564       0.00003742
Si       7.73715153       2.23352326      14.60888984      -0.00000259      -0.00005841      -0.00007971
Si       7.73715153       2.23352326      16.97789901      -0.00004615      -0.00005819      -0.00001550
Si       7.73715153       4.46704652      17.76756873      -0.00004443       0.00004182      -0.00011953
Si       7.73715153       4.46704652      20.13657789      -0.00009925       0.00003996      -0.00003964
Si       9.67143941       1.11676163      17.76756873      -0.00000160      -0.00003044      -0.00002364
Si       9.67143941       1.11676163      20.13657789      -0.00010162       0.00002231      -0.00001784
Si       9.67143941       3.35028489      11.45021096      -0.00003008      -0.00005454      -0.00003450
Si       9.67143941       3.35028489      13.81922012       0.00003880      -0.00007731      -0.00005682
Si       9.67143941       5.58380815      14.60888984       0.00001254      -0.00001086      -0.00002990
Si       9.67143941       5.58380815      16.97789901      -0.00002886       0.00004459       0.00002935
Si      11.60572729       6.70056978      11.45021096      -0.00002000       0.00002948       0.00003432
Si      11.60572729       6.70056978      13.81922012       0.00007123      -0.00001009       0.00003984
Si      11.60572729       8.93409304      14.60888984       0.00000713       0.00001474      -0.00001674
Si      11.60572729       8.93409304      16.97789901       0.00000533       0.00010090       0.00011618
Si      11.60572729      11.16761630      17.76756873       0.00000792       0.00005690       0.00001918
Si       0.00000000      11.16761630      20.13657789      -0.00002779      -0.00000314       0.00006597
Si       1.93428788       7.81733141      17.76756873       0.00004156      -0.00003302       0.00005933
Si       1.93428788       7.81733141      20.13657789       0.00005663       0.00006431       0.00002721
Si       1.93428788      10.05085467      11.45021096      -0.00003952       0.00001334       0.00003360
Si       1.93428788      10.05085467      13.81922012       0.00000463       0.00006132       0.00004078
Si       1.93428788      12.28437793      14.60888984       0.00003221       0.00001432       0.00003183
Si       1.93428788      12.28437793      16.97789901      -0.00003304       0.00004355       0.00008950
Si       3.86857576       6.70056978      11.45021096       0.00008360       0.00001787      -0.00000242
Si       3.86857576       6.70056978      13.81922012       0.00003502      -0.00002563       0.00006773
Si       3.86857576       8.93409304      14.60888984       0.00003316       0.00004602      -0.00000556
Si       3.86857576       8.93409304      16.97789901       0.00002667       0.00001735       0.00007117
Si       3.86857576      11.16761630      17.76756873      -0.00002443       0.00001169      -0.00007499
Si       3.86857576      11.16761630      20.13657789       0.00002733       0.00001502       0.00004168
Si       5.80286365       7.81733141      17.76756873       0.00004966      -0.00005937      -0.00001734
Si       5.80286365       7.81733141      20.13657789       0.00001139       0.00002614      -0.00002117
Si       5.80286365      10.05085467      11.45021096       0.00001488      -0.00004724       0.00005946
Si       5.80286365      10.05085467      13.81922012      -0.00001204      -0.00001684       0.00001643
Si       5.80286365      12.28437793      14.60888984      -0.00000930      -0.00001340      -0.00003609
Si       5.80286365      12.28437793      16.97789901      -0.00003593       0.00002944       0.00010616
Si       7.73715153       6.70056978      11.45021096      -0.00003830      -0.00000965      -0.00000539
Si       7.73715153       6.70056978      13.81922012      -0.00003319      -0.00001276      -0.00000550
Si       7.73715153       8.93409304      14.60888984      -0.00003657       0.00004105       0.00000211
Si       7.73715153       8.93409304      16.97789901      -0.00004011       0.00003071       0.00010294
Si       7.73715153      11.16761630      17.76756873      -0.00000013      -0.00001190       0.00001082
Si       7.73715153      11.16761630      20.13657789      -0.00010817       0.00000482      -0.00000088
Si       9.67143941       7.81733141      17.76756873      -0.00002264      -0.00003073       0.00000912
Si       9.67143941       7.81733141      20.13657789      -0.00005334       0.00004257       0.00002317
Si       9.67143941      10.05085467      11.45021096      -0.00001463       0.00003121      -0.00001303
Si       9.67143941      10.05085467      13.81922012      -0.00001079       0.00009798       0.00004024
Si       9.67143941      12.28437793      14.60888984      -0.00008128       0.00001281       0.00002672
Si       9.67143941      12.28437793      16.97789901      -0.00004469       0.00001839       0.00005902
