360
Lattice="11.605727294873521 0.0 0.0 0.0 16.412976941613742 0.0 0.0 0.0 38.6857576495784" Properties=species:S:1:pos:R:3:move_mask:L:1:forces:R:3 energy=-1740.7955005720594 free_energy=-1740.7955005720594 pbc="F F F"
Si       5.31929168       7.52261443      20.40673716  F      -0.53708434      -0.75168328      -1.10297967
Si       5.31929168       6.15486635     -19.43959322  F      -0.85623234       0.16074022       1.05484403
Si      -4.35214774      -6.15486635     -19.43959322  F       0.85623233      -0.16074023       1.05484395
Si      -4.35214774      -7.52261443     -17.50530534  F       0.06835608       0.94271335      -0.22871014
Si      -2.41785985       7.52261443      20.40673716  F       0.39407489      -0.57836396      -0.84891328
Si      -2.41785985       6.15486635     -19.43959322  F      -0.11463080      -0.24254691       0.66417270
Si      -0.48357197      -6.15486635     -19.43959322  F       0.05571827       0.07780685       0.63909726
Si      -0.48357197      -7.52261443     -17.50530534  F      -0.00344979       0.36815262      -0.26174083
Si       1.45071591       7.52261443      20.40673716  F      -0.01461845      -0.55423906      -0.76308140
Si       1.45071591       6.15486635     -19.43959322  F      -0.05571828      -0.07780684       0.63909731
Si       3.38500379      -6.15486635     -19.43959322  F       0.11463083       0.24254693       0.66417273
Si       3.38500379      -7.52261443     -17.50530534  F      -0.11172681       0.43402095      -0.18899911
Si       5.31929168      -3.41937020      20.40673716  F      -0.77384433       0.02554075      -0.78768032
Si       5.31929168      -4.78711827     -19.43959322  F      -0.79880284       0.02927860       0.76991278
Si      -4.35214774      -0.68387404     -19.43959322  F       0.80452657       0.00567060       0.80111744
Si      -4.35214774      -2.05162212     -17.50530534  F       0.17443219       0.31102895      -0.19212147
Si      -2.41785985      -3.41937020      20.40673716  F      -0.23109619       0.29293036      -0.15644479
Si      -2.41785985      -4.78711827     -19.43959322  F      -0.23140912      -0.26336309       0.16126746
Si      -0.48357197      -0.68387404     -19.43959322  F       0.08799437       0.22314829       0.11431953
Si      -0.48357197      -2.05162212     -17.50530534  F       0.11617330      -0.00076329      -0.16606462
Si       1.45071591      -3.41937020      20.40673716  F      -0.09055385       0.21965469      -0.10193131
Si       1.45071591      -4.78711827     -19.43959322  F      -0.08704640      -0.07493648       0.06995069
Si       3.38500379      -0.68387404     -19.43959322  F       0.19597761       0.34350801       0.16101521
Si       3.38500379      -2.05162212     -17.50530534  F       0.06595180      -0.04421025      -0.12933408
Si       5.31929168       2.05162212      20.40673716  F      -0.81297296       0.01033335      -0.80272134
Si       5.31929168       0.68387404     -19.43959322  F      -0.80452660      -0.00567072       0.80111755
Si      -4.35214774       4.78711827     -19.43959322  F       0.79880284      -0.02927865       0.76991281
Si      -4.35214774       3.41937020     -17.50530534  F       0.15504095       0.29723418      -0.20095428
Si      -2.41785985       2.05162212      20.40673716  F      -0.18289482       0.32610575      -0.17512590
Si      -2.41785985       0.68387404     -19.43959322  F      -0.19597753      -0.34350785       0.16101510
Si      -0.48357197       4.78711827     -19.43959322  F       0.08704648       0.07493646       0.06995074
Si      -0.48357197       3.41937020     -17.50530534  F       0.11686644       0.01582125      -0.14753915
Si       1.45071591       2.05162212      20.40673716  F      -0.08898285       0.23422940      -0.13881003
Si       1.45071591       0.68387404     -19.43959322  F      -0.08799431      -0.22314831       0.11431952
Si       3.38500379       4.78711827     -19.43959322  F       0.23140907       0.26336325       0.16126736
Si       3.38500379       3.41937020     -17.50530534  F       0.11188446       0.02162904      -0.12349531
Si       5.31929168       7.52261443     -17.50530534  F      -0.06835620      -0.94271328      -0.22871009
Si       5.31929168       6.15486635     -15.57101745  F      -0.47137265       0.44406152       0.10508585
Si      -4.35214774      -6.15486635     -15.57101745  F       0.47137282      -0.44406202       0.10508623
Si      -4.35214774      -7.52261443     -13.63672957  F      -0.16412557       0.28074824      -0.63024179
Si      -2.41785985       7.52261443     -17.50530534  F       0.11172689      -0.43402100      -0.18899889
Si      -2.41785985       6.15486635     -15.57101745  F      -0.04369359      -0.08996534       0.06161756
Si      -0.48357197      -6.15486635     -15.57101745  F      -0.16141032      -0.01731547      -0.05776234
Si      -0.48357197      -7.52261443     -13.63672957  F       0.02227209       0.31120228       0.50681495
Si       1.45071591       7.52261443     -17.50530534  F       0.00344994      -0.36815263      -0.26174080
Si       1.45071591       6.15486635     -15.57101745  F       0.16141044       0.01731541      -0.05776276
Si       3.38500379      -6.15486635     -15.57101745  F       0.04369354       0.08996549       0.06161730
Si       3.38500379      -7.52261443     -13.63672957  F      -0.14924732       0.05601993      -0.16949736
Si       5.31929168      -3.41937020     -17.50530534  F      -0.15504123      -0.29723379      -0.20095418
Si       5.31929168      -4.78711827     -15.57101745  F      -0.13204357       0.15590130       0.07587877
Si      -4.35214774      -0.68387404     -15.57101745  F       0.12323057      -0.17610004       0.06713246
Si      -4.35214774      -2.05162212     -13.63672957  F       0.10076855      -0.16846199      -0.22480108
Si      -2.41785985      -3.41937020     -17.50530534  F      -0.11188448      -0.02162964      -0.12349577
Si      -2.41785985      -4.78711827     -15.57101745  F      -0.19047190      -0.15344286       0.19948984
Si      -0.48357197      -0.68387404     -15.57101745  F       0.08965231      -0.00914142       0.05481082
Si      -0.48357197      -2.05162212     -13.63672957  F       0.07663042      -0.06667295      -0.10159203
Si       1.45071591      -3.41937020     -17.50530534  F      -0.11686634      -0.01582100      -0.14753910
Si       1.45071591      -4.78711827     -15.57101745  F      -0.04344551      -0.12601299       0.11348514
Si       3.38500379      -0.68387404     -15.57101745  F       0.14607776       0.05853431       0.05878913
Si       3.38500379      -2.05162212     -13.63672957  F       0.18440077       0.11211647      -0.12625284
Si       5.31929168       2.05162212     -17.50530534  F      -0.17443262      -0.31102785      -0.19212167
Si       5.31929168       0.68387404     -15.57101745  F      -0.12323034       0.17609650       0.06713418
Si      -4.35214774       4.78711827     -15.57101745  F       0.13204344      -0.15590233       0.07587847
Si      -4.35214774       3.41937020     -13.63672957  F       0.08363017       0.07952792       0.05500036
Si      -2.41785985       2.05162212     -17.50530534  F      -0.06595177       0.04420949      -0.12933388
Si      -2.41785985       0.68387404     -15.57101745  F      -0.14607735      -0.05853189       0.05878793
Si      -0.48357197       4.78711827     -15.57101745  F       0.04344548       0.12601284       0.11348458
Si      -0.48357197       3.41937020     -13.63672957  F      -0.13792778      -0.51269689      -0.43570679
Si       1.45071591       2.05162212     -17.50530534  F      -0.11617313       0.00076333      -0.16606442
Si       1.45071591       0.68387404     -15.57101745  F      -0.08965280       0.00914099       0.05481025
Si       3.38500379       4.78711827     -15.57101745  F       0.19047146       0.15344473       0.19948967
Si       3.38500379       3.41937020     -13.63672957  F      -0.01804849       0.05180576      -0.19555185
Si       5.31929168       7.52261443     -13.63672957  F       0.16413545      -0.28074461      -0.63024740
Si       3.46912168       7.13583909     -12.31054914  T      -0.00023289       0.00013269      -0.00007070
Si      -2.50197634      -7.13583729     -12.31054837  T       0.00020642      -0.00017309      -0.00008708
Si      -1.87886779      -7.98218247     -10.05908847  T       0.00003978      -0.00020282      -0.00006344
Si      -2.41785985       7.52261443     -13.63672957  F       0.14924659      -0.05602006      -0.16949694
Si      -2.53985723       6.16977811     -11.73048620  T       0.00022991       0.00007589       0.00017742
Si       0.00637288      -5.99065384     -11.88005322  T       0.00002134      -0.00000956       0.00042961
Si       0.30900726      -7.10053434      -9.84708133  T      -0.00053439      -0.00013090      -0.00018258
Si       1.45071591       7.52261443     -13.63672957  F      -0.02227053      -0.31120855       0.50682212
Si       0.96076728       5.99065335     -11.88005326  T       0.00005877       0.00002496       0.00042298
Si       3.50699936      -6.16977783     -11.73048638  T      -0.00018854      -0.00008253       0.00017937
Si       2.67060811      -7.55909093      -9.95051289  T      -0.00027782      -0.00038748       0.00012936
Si       5.31929168      -3.41937020     -13.63672957  F      -0.08362999      -0.07952375       0.05500119
Si       5.36778298      -4.72345129     -11.64105908  T      -0.00008466      -0.00019405      -0.00036521
Si      -4.31533691      -0.85345701     -11.65229568  T       0.00000109      -0.00007971       0.00013850
Si      -4.20846169      -2.29988722      -9.80253604  T       0.00017377      -0.00032901      -0.00013147
Si      -2.41785985      -3.41937020     -13.63672957  F       0.01805331      -0.05181992      -0.19554481
Si      -2.05788640      -4.86036033     -11.80055843  T      -0.00021768       0.00017626      -0.00008545
Si      -0.47492153      -0.68335425     -11.72213842  T      -0.00027459       0.00014011       0.00043752
Si      -0.41829169      -2.04941223      -9.79788130  T      -0.00026298      -0.00019262      -0.00000013
Si       1.45071591      -3.41937020     -13.63672957  F       0.13793033       0.51269279      -0.43570548
Si       1.80451949      -4.58813023     -11.69374110  T       0.00002283       0.00029521       0.00006958
Si       3.43863601      -0.58923164     -11.74409552  T       0.00012008       0.00008855      -0.00031586
Si       3.56394021      -1.83608763      -9.75192636  T       0.00022878       0.00011865      -0.00004233
Si       5.31929168       2.05162212     -13.63672957  F      -0.10076919       0.16848032      -0.22481072
Si       5.28248501       0.85346348     -11.65229369  T      -0.00009040      -0.00005972       0.00009618
Si      -4.40063827       4.72345293     -11.64106000  T       0.00006720       0.00016281      -0.00034525
Si      -4.30654458       3.44562997      -9.66502841  T      -0.00026988      -0.00040292      -0.00003253
Si      -2.41785985       2.05162212     -13.63672957  F      -0.18440539      -0.11212897      -0.12624757
Si      -2.47149750       0.58922628     -11.74409741  T      -0.00000778       0.00002280      -0.00027740
Si      -0.83737210       4.58813079     -11.69374160  T      -0.00008867      -0.00030329       0.00007952
Si      -0.68186246       3.17739308      -9.81645383  T       0.00023414       0.00026522      -0.00006210
Si       1.45071591       2.05162212     -13.63672957  F      -0.07662860       0.06667171      -0.10159227
Si       1.44206639       0.68335404     -11.72213825  T       0.00025806      -0.00013494       0.00043272
Si       3.02503197       4.86035571     -11.80055711  T       0.00018019      -0.00008192      -0.00011467
Si       3.20045614       3.58408903      -9.80975227  T       0.00026747       0.00010817      -0.00057014
Si       2.84601204       7.98218251     -10.05908837  T      -0.00004626       0.00020408      -0.00006737
Si       3.89098289       7.06316897      -8.09372779  T      -0.00017733      -0.00031363      -0.00011715
Si      -2.92383753      -7.06316593      -8.09372750  T       0.00015015       0.00025169      -0.00012116
Si      -1.92387682      -7.97051016      -6.12797093  T      -0.00041685      -0.00012611       0.00004083
Si      -1.70346397       7.55909127      -9.95051311  T       0.00027321       0.00038452       0.00013475
Si      -2.26470766       6.54509799      -7.90193629  T       0.00035287      -0.00002929       0.00032378
Si       0.25461920      -5.84759552      -7.84455560  T      -0.00010409      -0.00027866       0.00023597
Si       0.27102871      -7.16749261      -5.87858986  T      -0.00000426      -0.00035061      -0.00052209
Si       0.65813654       7.10053370      -9.84708122  T       0.00053957       0.00013738      -0.00018514
Si       0.71252349       5.84759732      -7.84455441  T       0.00013269       0.00024924       0.00022205
Si       3.23185119      -6.54509870      -7.90193648  T      -0.00034346       0.00004401       0.00032980
Si       2.53760673      -7.81887481      -6.03835561  T       0.00021067      -0.00042012      -0.00029544
Si       5.27369041      -3.44563306      -9.66502907  T       0.00022429       0.00046789      -0.00001959
Si       4.46932390      -4.53489216      -7.70193592  T      -0.00038760       0.00000724       0.00005077
Si      -4.24981630      -1.09670524      -7.80743017  T       0.00012006      -0.00015449      -0.00011004
Si      -4.15566125      -2.50356510      -5.93955118  T       0.00022047      -0.00001852       0.00003509
Si      -2.23331882      -3.58408275      -9.80975368  T      -0.00012925      -0.00024233      -0.00054150
Si      -1.91580729      -4.95790285      -7.91256255  T       0.00005687      -0.00030589      -0.00030258
Si      -0.47191413      -0.69434157      -7.86012712  T      -0.00012475      -0.00001648      -0.00001690
Si      -0.39925398      -2.07707448      -5.95387977  T       0.00008557      -0.00033527      -0.00040427
Si       1.64900455      -3.17739309      -9.81645426  T      -0.00019400      -0.00026442      -0.00004985
Si       2.06972449      -4.34734205      -7.83685118  T      -0.00016690      -0.00000357       0.00013481
Si       3.48924537      -0.49463137      -7.77087425  T      -0.00027990       0.00028134      -0.00005559
Si       3.54901243      -1.65986862      -5.67460457  T       0.00036505       0.00020825      -0.00026140
Si       5.17561114       2.29987944      -9.80253692  T      -0.00028528       0.00049162      -0.00011303
Si       5.21696383       1.09671286      -7.80742928  T      -0.00019758      -0.00000949      -0.00012554
Si      -3.50217957       4.53489314      -7.70193610  T       0.00037675      -0.00002506       0.00005520
Si      -4.03885667       3.51950478      -5.60061929  T       0.00028210       0.00007153      -0.00022752
Si      -2.59679752       1.83609324      -9.75192488  T      -0.00020487      -0.00023597      -0.00007787
Si      -2.52210605       0.49462653      -7.77087430  T       0.00037623      -0.00017719      -0.00005576
Si      -1.10258052       4.34734145      -7.83685183  T       0.00016850       0.00001467       0.00014849
Si      -0.72079883       3.07586084      -5.90648823  T      -0.00021763       0.00017568      -0.00026361
Si       1.38543693       2.04941193      -9.79788158  T       0.00023671       0.00019604       0.00000690
Si       1.43905858       0.69434143      -7.86012670  T       0.00011523       0.00002083      -0.00002062
Si       2.88295230       4.95789630      -7.91256421  T      -0.00007611       0.00044526      -0.00027272
Si       3.09840357       3.67175845      -5.92537167  T       0.00012410       0.00042765       0.00023421
Si       2.89102130       7.97051019      -6.12797127  T       0.00040744       0.00012541       0.00004361
Si       3.12270152       7.04471754      -3.91326558  T       0.00004498      -0.00004855       0.00022809
Si      -2.15555736      -7.04471708      -3.91326543  T      -0.00004650       0.00004249       0.00022827
Si      -3.27502207      -5.41909518      -2.19369528  T      -0.00036265      -0.00048492       0.00004129
Si      -1.57046248       7.81887487      -6.03835565  T      -0.00021533       0.00041945      -0.00029834
Si      -1.87347520       6.71455487      -3.96357234  T       0.00019416       0.00026133       0.00022316
Si       0.24033226      -6.35598814      -3.55044358  T       0.00039990      -0.00073367       0.00003666
Si      -1.57755300      -5.41578484      -0.25483112  T      -0.00026098      -0.00008134       0.00042072
Si       0.69611481       7.16749236      -5.87859035  T       0.00001494       0.00036162      -0.00050987
Si       0.72681167       6.35598823      -3.55044368  T      -0.00039767       0.00073154       0.00003545
Si       2.84061894      -6.71455474      -3.96357206  T      -0.00019224      -0.00026118       0.00022174
Si       0.57343596      -6.07960940      -0.97234728  T       0.00025328      -0.00024353       0.00026021
Si       5.00600102      -3.51950522      -5.60061965  T      -0.00029177      -0.00005541      -0.00022339
Si       4.14348797      -4.64570422      -3.66304373  T       0.00031758       0.00019213      -0.00033152
Si      -4.17345400      -1.43906128      -3.87656155  T       0.00017568      -0.00048492       0.00009986
Si      -3.99087242      -3.06699644      -2.16931475  T      -0.00006126       0.00010870       0.00019180
Si      -2.13126421      -3.67175487      -5.92537128  T      -0.00002673      -0.00049644       0.00022709
Si      -1.59385043      -4.70029918      -3.81052658  T      -0.00059457      -0.00018365       0.00030056
Si      -0.34309010      -0.82372590      -3.96269405  T      -0.00018434       0.00007364      -0.00020686
Si       0.46730663      -1.81341713      -1.91239077  T       0.00030666       0.00022307       0.00023977
Si       1.68794205      -3.07586067      -5.90648876  T       0.00023764      -0.00017878      -0.00025369
Si       1.78462236      -4.53376203      -4.06132900  T      -0.00025089      -0.00000228      -0.00002180
Si       3.42348755      -0.18418171      -3.73956077  T       0.00019906      -0.00027051      -0.00022412
Si       2.95337451      -1.20584025      -1.63311033  T      -0.00007689      -0.00019201      -0.00018853
Si       5.12280892       2.50356000      -5.93955351  T      -0.00030085       0.00012576       0.00007977
Si       5.14059843       1.43906288      -3.87656170  T      -0.00018544       0.00045579       0.00010212
Si      -3.17634378       4.64570460      -3.66304395  T      -0.00031826      -0.00019444      -0.00033003
Si      -2.69117398       3.46665981      -1.42526615  T       0.00009488       0.00008940      -0.00020613
Si      -2.58186847       1.65987085      -5.67460408  T      -0.00036545      -0.00025028      -0.00027189
Si      -2.45634418       0.18418099      -3.73956062  T      -0.00018707       0.00029045      -0.00022527
Si      -0.81747816       4.53376198      -4.06132926  T       0.00025063       0.00000709      -0.00001665
Si      -0.44392104       4.01513229      -1.82106468  T       0.00013723       0.00013742      -0.00049505
Si       1.36639909       2.07707440      -5.95387965  T      -0.00010616       0.00033709      -0.00040260
Si       1.31023381       0.82372606      -3.96269393  T       0.00018589      -0.00007464      -0.00020598
Si       2.56099465       4.70029853      -3.81052724  T       0.00058811       0.00020182       0.00031263
Si       2.60304570       3.45576577      -1.60244768  T       0.00013398       0.00019170       0.00041155
Si       4.24216583       5.41909541      -2.19369517  T       0.00036332       0.00048157       0.00003936
Si       4.19076967       5.80870556       1.60839655  T      -0.00033919       0.00038172       0.00029758
Si      -3.22362578      -5.80870535       1.60839654  T       0.00033892      -0.00038336       0.00029790
Si      -2.42142022      -6.76804575       3.63894068  T      -0.00035379       0.00004580       0.00017059
Si       0.39370767       6.07960949      -0.97234745  T      -0.00025148       0.00024315       0.00026055
Si      -0.66560364       5.61259376       1.26887565  T      -0.00007101      -0.00020562      -0.00025269
Si      -0.54194676      -4.39998546       1.82619268  T      -0.00031341       0.00018547      -0.00038941
Si      -0.42732843      -5.60684537       3.90084805  T       0.00021681      -0.00010768       0.00026836
Si       2.54469688       5.41578493      -0.25483123  T       0.00025919       0.00008218       0.00042051
Si       1.50909068       4.39998566       1.82619271  T       0.00031295      -0.00018649      -0.00038999
Si       1.63274751      -5.61259361       1.26887574  T       0.00007102       0.00020570      -0.00025325
Si       1.67599948      -6.55548879       3.51486893  T      -0.00037356      -0.00002326       0.00002367
Si       3.65831788      -3.46665988      -1.42526616  T      -0.00009683      -0.00008512      -0.00020646
Si       2.98657072      -3.68753271       0.91975071  T      -0.00020077      -0.00047993      -0.00004834
Si      -3.17420920      -2.33401033      -0.03201251  T       0.00030537      -0.00011158      -0.00043338
Si      -4.30817288      -0.76913278       4.41857298  T       0.00027812      -0.00007143      -0.00016227
Si      -1.63590188      -3.45576560      -1.60244746  T      -0.00013388      -0.00019328       0.00041084
Si      -2.81753707      -3.52764106       1.99758206  T      -0.00034970       0.00011209      -0.00005205
Si      -0.19365556      -0.93135435       0.15813995  T      -0.00005191       0.00017854      -0.00050293
Si      -1.05412504      -0.76385825       4.19756274  T       0.00015969       0.00005182      -0.00009427
Si       1.41106479      -4.01513230      -1.82106466  T      -0.00013644      -0.00013684      -0.00049378
Si       0.93325496      -2.57495169       1.41203710  T      -0.00029762       0.00016870      -0.00015402
Si       3.35842205       0.15630553       0.38392278  T       0.00007634      -0.00038669      -0.00037458
Si       3.78884435      -0.28002672       2.77564010  T      -0.00006975      -0.00001883      -0.00023012
Si       4.95801617       3.06699604      -2.16931484  T       0.00006095      -0.00009727       0.00019264
Si       4.14135306       2.33401068      -0.03201264  T      -0.00030751       0.00010684      -0.00043226
Si      -2.01942690       3.68753291       0.91975079  T       0.00020070       0.00047971      -0.00004918
Si      -2.51065801       2.58643779       3.02535997  T      -0.00004017      -0.00008659       0.00041091
Si      -1.98623045       1.20584091      -1.63311019  T       0.00007596       0.00018353      -0.00019102
Si      -2.39127839      -0.15630559       0.38392281  T      -0.00007482       0.00039088      -0.00037443
Si       0.03388881       2.57495179       1.41203712  T       0.00029835      -0.00016840      -0.00015381
Si      -0.17584511       1.66039831       3.59910759  T      -0.00005064       0.00009153      -0.00033415
Si       0.49983720       1.81341713      -1.91239073  T      -0.00030648      -0.00022174       0.00023893
Si       1.16079933       0.93135451       0.15813973  T       0.00005217      -0.00017881      -0.00050119
Si       3.78468093       3.52764109       1.99758210  T       0.00034985      -0.00011015      -0.00005234
Si       3.77531785       2.54129670       4.18464676  T       0.00011998       0.00024839      -0.00033076
Si       3.38856411       6.76804583       3.63894065  T       0.00035282      -0.00004612       0.00017134
Si       4.44498862       6.09268493       5.67190917  T      -0.00056436       0.00007832       0.00012651
Si      -3.47784483      -6.09268491       5.67190912  T       0.00056461      -0.00007843       0.00012718
Si      -2.39998849      -6.90189222       7.63386728  T       0.00051719       0.00012917       0.00025599
Si      -0.70885567       6.55548888       3.51486896  T       0.00037315       0.00002316       0.00002351
Si      -1.64085612       5.27114438       5.35568598  T       0.00015772       0.00001661       0.00018630
Si      -0.43537875      -4.61356595       6.06717403  T      -0.00021155       0.00027367       0.00020049
Si      -0.27993705      -6.00356161       8.07667693  T       0.00043164      -0.00012807       0.00016786
Si       1.39447217       5.60684546       3.90084807  T      -0.00021540       0.00010820       0.00026850
Si       1.40252262       4.61356591       6.06717400  T       0.00021157      -0.00027372       0.00020046
Si       2.60800001      -5.27114442       5.35568594  T      -0.00015778      -0.00001647       0.00018644
Si       2.02700202      -5.56954386       7.66938061  T      -0.00001302       0.00001006      -0.00036316
Si       3.47780188      -2.58643768       3.02536004  T       0.00004021       0.00008710       0.00041063
Si       3.89768158      -3.28877525       5.27164221  T      -0.00019534      -0.00010487      -0.00013979
Si      -3.57300640      -0.34660268       6.68363520  T       0.00026758      -0.00028294      -0.00050908
Si      -4.44571292      -1.56360165       8.58801478  T      -0.00004459      -0.00008104       0.00031724
Si      -2.80817394      -2.54129658       4.18464674  T      -0.00012014      -0.00024873      -0.00033061
Si      -2.65188606      -3.93946228       6.07836014  T      -0.00007884       0.00000533      -0.00018623
Si      -1.17849731      -0.56528642       6.61597373  T      -0.00015859      -0.00027786      -0.00010433
Si      -0.65292943      -2.12148629       8.58382878  T      -0.00062526       0.00043565      -0.00025563
Si       1.14298907      -1.66039837       3.59910752  T       0.00005069      -0.00009144      -0.00033348
Si       1.34572389      -3.20869772       5.36288782  T      -0.00025623       0.00015474      -0.00017608
Si       2.30165744      -1.80671191       6.97888401  T       0.00003138      -0.00002806      -0.00022315
Si       3.63066938      -2.48592226       9.21719171  T       0.00038242       0.00045753       0.00048632
Si       5.27531682       0.76913297       4.41857302  T      -0.00027792       0.00007118      -0.00016241
Si       4.54015040       0.34660265       6.68363520  T      -0.00026769       0.00028305      -0.00050898
Si      -2.93053772       3.28877520       5.27164216  T       0.00019528       0.00010496      -0.00013933
Si      -3.72868541       1.98573876       7.12009155  T       0.00024924       0.00049351      -0.00018436
Si      -2.82170046       0.28002692       2.77564006  T       0.00006980       0.00001777      -0.00023031
Si      -1.33451356       1.80671189       6.97888396  T      -0.00003105       0.00002797      -0.00022279
Si      -0.37858005       3.20869768       5.36288778  T       0.00025645      -0.00015450      -0.00017589
Si      -0.52211903       3.46281786       8.66546428  T      -0.00003316       0.00002723       0.00000418
Si       2.02126900       0.76385831       4.19756273  T      -0.00015973      -0.00005179      -0.00009425
Si       2.14564130       0.56528640       6.61597370  T       0.00015862       0.00027792      -0.00010418
Si       3.61902996       3.93946226       6.07836013  T       0.00007865      -0.00000487      -0.00018584
Si       3.84658631       3.28793606       8.37838725  T       0.00001796       0.00024771      -0.00030229
Si       3.36713243       6.90189224       7.63386729  T      -0.00051754      -0.00012887       0.00025630
Si       4.49508916       5.51824605       9.22322102  T       0.00062304       0.00010359      -0.00017962
Si      -3.52794534      -5.51824607       9.22322100  T      -0.00062243      -0.00010325      -0.00017943
Si      -3.32986610      -5.77926510      11.75975796  T       0.00061019       0.00066232      -0.00003689
Si      -1.05985806       5.56954376       7.66938065  T       0.00001302      -0.00000987      -0.00036325
Si      -2.49459924       5.97367836       9.65875605  T       0.00027788      -0.00025874      -0.00061924
Si      -0.23360408      -5.86675900      10.47517409  T       0.00001569      -0.00037080      -0.00026997
Si      -1.28221518      -6.85341031      12.39331164  T      -0.00000821       0.00008904      -0.00036956
Si       1.24708102       6.00356156       8.07667694  T      -0.00043176       0.00012804       0.00016800
Si       1.20074806       5.86675896      10.47517415  T      -0.00001640       0.00037082      -0.00027036
Si       3.46174321      -5.97367830       9.65875600  T      -0.00027801       0.00025851      -0.00061915
Si       3.39368184      -5.87362801      12.14829977  T       0.00004516       0.00002581       0.00017085
Si       4.69582939      -1.98573882       7.12009143  T      -0.00024930      -0.00049310      -0.00018417
Si       4.95193862      -4.21621700      10.17319295  T      -0.00000989       0.00037679      -0.00053115
Si      -4.37867981      -0.55179486      10.71258115  T      -0.00001375      -0.00001932       0.00005102
Si      -4.38802718      -1.95345357      12.61480973  T      -0.00014966       0.00026767      -0.00032429
Si      -2.87944229      -3.28793606       8.37838727  T      -0.00001843      -0.00024786      -0.00030226
Si      -1.89574787      -4.25590170      10.42988933  T       0.00011790       0.00039322       0.00004850
Si      -0.49363982      -0.69253995      10.56539255  T       0.00013315       0.00006852       0.00023460
Si      -0.58186351      -2.01145342      12.60991225  T       0.00015955       0.00009822      -0.00011107
Si       1.48926312      -3.46281791       8.66546427  T       0.00003304      -0.00002714       0.00000447
Si       1.71673151      -4.69496744      10.84139987  T       0.00039498       0.00011560       0.00014232
Si       3.38497343      -0.71642096      10.73729107  T      -0.00017608      -0.00045931      -0.00005595
Si       3.26074028      -1.99432841      12.69075876  T      -0.00003355       0.00011837      -0.00043138
Si       5.41285692       1.56360166       8.58801479  T       0.00004459       0.00008081       0.00031722
Si       5.34582384       0.55179484      10.71258117  T       0.00001389       0.00001965       0.00005117
Si      -3.98479469       4.21621699      10.17319282  T       0.00001017      -0.00037664      -0.00053066
Si      -3.65566653       3.88133902      12.51348622  T      -0.00039189       0.00020588      -0.00024183
Si      -2.66352522       2.48592234       9.21719178  T      -0.00038293      -0.00045775       0.00048583
Si      -2.41782939       0.71642096      10.73729100  T       0.00017574       0.00045891      -0.00005584
Si      -0.74958758       4.69496736      10.84139981  T      -0.00039478      -0.00011523       0.00014242
Si      -0.40036831       3.35070952      12.73634659  T       0.00075280       0.00049531       0.00002643
Si       1.62007329       2.12148629       8.58382873  T       0.00062605      -0.00043577      -0.00025549
Si       1.46078380       0.69253998      10.56539255  T      -0.00013309      -0.00006883       0.00023449
Si       2.86289180       4.25590170      10.42988931  T      -0.00011789      -0.00039385       0.00004892
Si       3.53688401       3.45632373      12.61558775  T      -0.00004826      -0.00030597       0.00005229
Si       4.29701004       5.77926513      11.75975793  T      -0.00061032      -0.00066252      -0.00003675
Si       5.31929168       6.15486635      14.60387351  F      -0.41753085       0.18332527       0.39083076
Si      -4.35214774      -6.15486635      14.60387351  F       0.41753084      -0.18332528       0.39083077
Si      -4.35214774      -7.52261443      16.53816140  F       0.20070432       0.92913348      -0.00323194
Si      -2.42653794       5.87362792      12.14829979  T      -0.00004497      -0.00002574       0.00017076
Si      -2.41785985       6.15486635      14.60387351  F      -0.03374485      -0.30771494       0.20568108
Si      -0.48357197      -6.15486635      14.60387351  F      -0.20343147       0.23899462      -0.15803802
Si      -0.48357197      -7.52261443      16.53816140  F      -0.06803567       0.09455382       0.03112485
Si       2.24935910       6.85341034      12.39331160  T       0.00000833      -0.00008902      -0.00036915
Si       1.45071591       6.15486635      14.60387351  F       0.20343151      -0.23899457      -0.15803815
Si       3.38500379      -6.15486635      14.60387351  F       0.03374485       0.30771492       0.20568106
Si       3.38500379      -7.52261443      16.53816140  F      -0.19058167       0.12356389      -0.01161996
Si       4.62281047      -3.88133911      12.51348629  T       0.00039192      -0.00020618      -0.00024206
Si       5.31929168      -4.78711827      14.60387351  F      -0.16278221      -0.05014578       0.21386853
Si      -4.35214774      -0.68387404      14.60387351  F       0.12808604      -0.05742259       0.06783876
Si      -4.35214774      -2.05162212      16.53816140  F       0.09828924       0.18842000      -0.05886119
Si      -2.56974012      -3.45632382      12.61558773  T       0.00004824       0.00030635       0.00005250
Si      -2.41785985      -4.78711827      14.60387351  F      -0.12396852      -0.13671360       0.18823665
Si      -0.48357197      -0.68387404      14.60387351  F      -0.00280252       0.06685048      -0.10406428
Si      -0.48357197      -2.05162212      16.53816140  F       0.07511574      -0.02581249      -0.05878229
Si       1.36751224      -3.35070945      12.73634659  T      -0.00075289      -0.00049572       0.00002656
Si       1.45071591      -4.78711827      14.60387351  F      -0.03421839      -0.07571633       0.08877516
Si       3.38500379      -0.68387404      14.60387351  F       0.15283647       0.21626108       0.43627034
Si       3.38500379      -2.05162212      16.53816140  F       0.12533116      -0.09426263      -0.11688659
Si       5.35517113       1.95345356      12.61480977  T       0.00014967      -0.00026758      -0.00032466
Si       5.31929168       0.68387404      14.60387351  F      -0.12808605       0.05742244       0.06783899
Si      -4.35214774       4.78711827      14.60387351  F       0.16278237       0.05014551       0.21386807
Si      -4.35214774       3.41937020      16.53816140  F       0.07562835       0.03202501      -0.03191203
Si      -2.29359624       1.99432828      12.69075869  T       0.00003303      -0.00011731      -0.00043104
Si      -2.41785985       0.68387404      14.60387351  F      -0.15283638      -0.21626123       0.43627031
Si      -0.48357197       4.78711827      14.60387351  F       0.03421834       0.07571651       0.08877535
Si      -0.48357197       3.41937020      16.53816140  F       0.13462581      -0.02988866       0.04083007
Si       1.54900737       2.01145343      12.60991224  T      -0.00015921      -0.00009816      -0.00011083
Si       1.45071591       0.68387404      14.60387351  F       0.00280243      -0.06685049      -0.10406443
Si       3.38500379       4.78711827      14.60387351  F       0.12396853       0.13671352       0.18823651
Si       3.38500379       3.41937020      16.53816140  F       0.17304706      -0.13631775       0.02796325
Si       5.31929168       7.52261443      16.53816140  F      -0.20070432      -0.92913349      -0.00323193
Si       5.31929168       6.15486635      18.47244928  F      -0.41931966       0.74439390       0.24422705
Si      -4.35214774      -6.15486635      18.47244928  F       0.41931967      -0.74439390       0.24422705
Si      -4.35214774      -7.52261443      20.40673716  F       0.53708434       0.75168328      -1.10297967
Si      -2.41785985       7.52261443      16.53816140  F       0.19058166      -0.12356390      -0.01161997
Si      -2.41785985       6.15486635      18.47244928  F       0.01873306       0.24363100       0.19199730
Si      -0.48357197      -6.15486635      18.47244928  F       0.08681851      -0.28811396       0.08936414
Si      -0.48357197      -7.52261443      20.40673716  F       0.01461845       0.55423906      -0.76308140
Si       1.45071591       7.52261443      16.53816140  F       0.06803567      -0.09455383       0.03112484
Si       1.45071591       6.15486635      18.47244928  F      -0.08681851       0.28811397       0.08936414
Si       3.38500379      -6.15486635      18.47244928  F      -0.01873306      -0.24363100       0.19199730
Si       3.38500379      -7.52261443      20.40673716  F      -0.39407489       0.57836396      -0.84891328
Si       5.31929168      -3.41937020      16.53816140  F      -0.07562835      -0.03202499      -0.03191205
Si       5.31929168      -4.78711827      18.47244928  F      -0.22083517       0.25828960       0.22343273
Si      -4.35214774      -0.68387404      18.47244928  F       0.17228166      -0.32933394       0.19033147
Si      -4.35214774      -2.05162212      20.40673716  F       0.81297297      -0.01033335      -0.80272134
Si      -2.41785985      -3.41937020      16.53816140  F      -0.17304707       0.13631777       0.02796325
Si      -2.41785985      -4.78711827      18.47244928  F      -0.11535636      -0.08426305       0.19135145
Si      -0.48357197      -0.68387404      18.47244928  F       0.11019881      -0.04509795       0.12990904
Si      -0.48357197      -2.05162212      20.40673716  F       0.08898285      -0.23422940      -0.13881003
Si       1.45071591      -3.41937020      16.53816140  F      -0.13462581       0.02988864       0.04083009
Si       1.45071591      -4.78711827      18.47244928  F      -0.12245758      -0.00942827       0.21431329
Si       3.38500379      -0.68387404      18.47244928  F       0.07474152       0.00046987       0.10785933
Si       3.38500379      -2.05162212      20.40673716  F       0.18289482      -0.32610575      -0.17512590
Si       5.31929168       2.05162212      16.53816140  F      -0.09828923      -0.18842001      -0.05886118
Si       5.31929168       0.68387404      18.47244928  F      -0.17228166       0.32933394       0.19033147
Si      -4.35214774       4.78711827      18.47244928  F       0.22083518      -0.25828961       0.22343273
Si      -4.35214774       3.41937020      20.40673716  F       0.77384433      -0.02554075      -0.78768032
Si      -2.41785985       2.05162212      16.53816140  F      -0.12533116       0.09426269      -0.11688662
Si      -2.41785985       0.68387404      18.47244928  F      -0.07474152      -0.00046987       0.10785933
Si      -0.48357197       4.78711827      18.47244928  F       0.12245758       0.00942828       0.21431328
Si      -0.48357197       3.41937020      20.40673716  F       0.09055385      -0.21965469      -0.10193131
Si       1.45071591       2.05162212      16.53816140  F      -0.07511574       0.02581249      -0.05878229
Si       1.45071591       0.68387404      18.47244928  F      -0.11019881       0.04509795       0.12990904
Si       3.38500379       4.78711827      18.47244928  F       0.11535636       0.08426305       0.19135145
Si       3.38500379       3.41937020      20.40673716  F       0.23109619      -0.29293036      -0.15644479
