216
Lattice="11.605727294873521 0.0 0.0 0.0 13.401139555673227 0.0 0.0 0.0 28.428109966331448" Properties=species:S:1:pos:R:3:forces:R:3:energies:R:1 energy=-1166.2740579008141 stress="0.004090243696859698 1.53802822096283e-17 -8.348680646152706e-18 1.53802822096283e-17 0.0040035927781458 -4.443371560759717e-05 -8.348680646152706e-18 -4.443371560759717e-05 0.004130322598756723" free_energy=-1166.2740579008141 pbc="T T T"
Si      11.60572729       0.00502868      20.93340359       0.00000000       0.00004808       0.00005237      -5.36046595
Si       0.00000000      13.39607806      23.29856172      -0.00000000       0.00003572      -0.00000436      -5.39037837
Si      11.60572729       2.23847389      24.09163463       0.00000000      -0.00001956       0.00002924      -5.39264261
Si       0.00000000       2.22230077      26.45829252      -0.00000000      -0.00007567       0.00011372      -5.35495015
P        0.00000000       4.47027220      27.24082564       0.00000000       0.00003839       0.00010375      -5.81792865
Si       0.00000000       4.46965776       1.18810923      -0.00000000       0.00006438      -0.00009038      -5.36279724
Si       1.93309687       1.12258782      27.25183025      -0.00000406       0.00001268      -0.00006162      -5.38278650
Si       1.93258511       1.11509255       1.18061707       0.00004491       0.00003813       0.00001961      -5.38094789
Si       1.93897514       3.35057628      20.93237042       0.00004923      -0.00005383       0.00008555      -5.38923832
Si       1.93460322       3.35667731      23.30488985       0.00002974      -0.00004655       0.00006812      -5.38421943
Si       1.93186961       5.57729573      24.09327309       0.00002686       0.00003348       0.00001382      -5.37874966
Si       1.94382575       5.58537562      26.45052482       0.00000975      -0.00002236       0.00009749      -5.37117206
Si       3.86412140      13.39739237      20.92636791      -0.00000693      -0.00000182      -0.00005929      -5.38710136
Si       3.86173885       0.00160406      23.29707930       0.00000380       0.00002674      -0.00004792      -5.38545820
Si       3.86346024       2.24555298      24.09420829       0.00000705      -0.00005542       0.00003591      -5.37909101
Si       3.86462053       2.24151216      26.45617821       0.00002615      -0.00005021       0.00004513      -5.38631049
Si       3.86198562       4.46447564      27.23892744       0.00013492       0.00006740       0.00007017      -5.38010347
Si       3.86612802       4.46911934       1.18298020       0.00010366      -0.00002009      -0.00004798      -5.39493070
Si       5.80286365       1.12539536      27.24283686       0.00000000      -0.00003831      -0.00001733      -5.38804784
Si       5.80286365       1.12116843       1.18804514       0.00000000       0.00001497       0.00004485      -5.39569482
Si       5.80286365       3.36066615      20.93461034      -0.00000000      -0.00003445       0.00007036      -5.38671215
Si       5.80286365       3.34739445      23.30012300      -0.00000000      -0.00001551       0.00003499      -5.35753817
P        5.80286365       5.59244338      24.08971173      -0.00000000      -0.00002787      -0.00000943      -5.81479422
Si       5.80286365       5.58243787      26.46491639      -0.00000000      -0.00006496       0.00016480      -5.36136040
Si       7.74160589      13.39739237      20.92636791       0.00000693      -0.00000182      -0.00005929      -5.38710136
Si       7.74398844       0.00160406      23.29707930      -0.00000380       0.00002674      -0.00004792      -5.38545820
Si       7.74226706       2.24555298      24.09420829      -0.00000705      -0.00005542       0.00003591      -5.37909101
Si       7.74110676       2.24151216      26.45617821      -0.00002615      -0.00005021       0.00004513      -5.38631049
Si       7.74374168       4.46447564      27.23892744      -0.00013492       0.00006740       0.00007017      -5.38010347
Si       7.73959927       4.46911934       1.18298020      -0.00010366      -0.00002009      -0.00004798      -5.39493070
Si       9.67263042       1.12258782      27.25183025       0.00000406       0.00001268      -0.00006162      -5.38278650
Si       9.67314218       1.11509255       1.18061707      -0.00004491       0.00003813       0.00001961      -5.38094789
Si       9.66675215       3.35057628      20.93237042      -0.00004923      -0.00005383       0.00008555      -5.38923832
Si       9.67112408       3.35667731      23.30488985      -0.00002974      -0.00004655       0.00006812      -5.38421943
Si       9.67385768       5.57729573      24.09327309      -0.00002686       0.00003348       0.00001382      -5.37874966
Si       9.66190154       5.58537562      26.45052482      -0.00000975      -0.00002236       0.00009749      -5.37117206
Si       0.00000000       6.70663390      20.92659163       0.00000000       0.00002476       0.00001639      -5.39105753
Si       0.00000000       6.70118252      23.29993682      -0.00000000      -0.00009038       0.00007861      -5.39161004
Si       0.00000000       8.93264446      24.09324851      -0.00000000       0.00007825       0.00011747      -5.39018881
Si       0.00000000       8.92607588      26.46789256      -0.00000000       0.00003912      -0.00000187      -5.38033727
Si       0.00000000      11.16378516      27.24304361       0.00000000       0.00000693       0.00002112      -5.36526899
P       11.60572729      11.16780826       1.18940145       0.00000000       0.00007919      -0.00002408      -5.81470167
Si       1.92704529       7.81171098      27.24900145       0.00001488      -0.00001535      -0.00004007      -5.37660636
Si       1.92651118       7.81364808       1.17968900       0.00008944      -0.00000186       0.00004251      -5.38335495
Si       1.93882300      10.04591927      20.93200940      -0.00005561       0.00001997       0.00000490      -5.36233737
Si       1.92872154      10.05042641      23.29747718       0.00002522      -0.00005769      -0.00003262      -5.38812951
Si       1.93001491      12.27937292      24.08812085      -0.00001923      -0.00000294       0.00010161      -5.39306085
Si       1.93147825      12.28803277      26.46837504      -0.00003639       0.00002340      -0.00006141      -5.39131894
Si       3.87232564       6.69884006      20.93393699      -0.00004982      -0.00003813       0.00006096      -5.39068726
Si       3.85920973       6.70276053      23.29911304      -0.00001581      -0.00012308       0.00006857      -5.36098688
Si       3.87161161       8.93109940      24.09183493      -0.00007134       0.00000223      -0.00000897      -5.38992488
Si       3.86390088       8.92889783      26.45853791       0.00004548      -0.00002000      -0.00000324      -5.38706101
Si       3.86274113      11.16689869      27.24875368       0.00007607       0.00003670      -0.00003175      -5.39062125
Si       3.86136088      11.16810403       1.18613042       0.00006770      -0.00003847      -0.00003298      -5.38539362
Si       5.80286365       7.81749955      27.23813945       0.00000000      -0.00006761       0.00004582      -5.38911116
Si       5.80286365       7.80772882       1.18702855       0.00000000      -0.00001239      -0.00010713      -5.39177215
Si       5.80286365      10.04457176      20.93211327       0.00000000       0.00001934      -0.00005527      -5.39120842
Si       5.80286365      10.04280400      23.30290309       0.00000000      -0.00008406      -0.00004898      -5.38798375
Si       5.80286365      12.28330061      24.08664935       0.00000000      -0.00010717       0.00004296      -5.39057484
Si       5.80286365      12.28677143      26.45862857      -0.00000000       0.00004838      -0.00001056      -5.39144175
Si       7.73340165       6.69884006      20.93393699       0.00004982      -0.00003813       0.00006096      -5.39068726
Si       7.74651757       6.70276053      23.29911304       0.00001581      -0.00012308       0.00006857      -5.36098688
Si       7.73411568       8.93109940      24.09183493       0.00007134       0.00000223      -0.00000897      -5.38992488
Si       7.74182642       8.92889783      26.45853791      -0.00004548      -0.00002000      -0.00000324      -5.38706101
Si       7.74298617      11.16689869      27.24875368      -0.00007607       0.00003670      -0.00003175      -5.39062125
Si       7.74436641      11.16810403       1.18613042      -0.00006770      -0.00003847      -0.00003298      -5.38539362
Si       9.67868201       7.81171098      27.24900145      -0.00001488      -0.00001535      -0.00004007      -5.37660636
Si       9.67921611       7.81364808       1.17968900      -0.00008944      -0.00000186       0.00004251      -5.38335495
Si       9.66690429      10.04591927      20.93200940       0.00005561       0.00001997       0.00000490      -5.36233737
Si       9.67700576      10.05042641      23.29747718      -0.00002522      -0.00005769      -0.00003262      -5.38812951
Si       9.67571238      12.27937292      24.08812085       0.00001923      -0.00000294       0.00010161      -5.39306085
Si       9.67424904      12.28803277      26.46837504       0.00003639       0.00002340      -0.00006141      -5.39131894
Si       0.00000000       0.01265479       1.97441431      -0.00000000       0.00007065      -0.00005077      -5.35702627
Si       0.00000000      13.39809198       4.34089793       0.00000000       0.00000721      -0.00001221      -5.39005167
Si       0.00000000       2.23942326       5.13498691      -0.00000000      -0.00000194      -0.00003329      -5.39473032
Si       0.00000000       2.22306248       7.50112052       0.00000000      -0.00005239       0.00012469      -5.35491201
P        0.00000000       4.47043108       8.28452043      -0.00000000       0.00004104       0.00001536      -5.81796554
Si      11.60572729       4.47003075      10.66170068       0.00000000       0.00007127      -0.00000404      -5.36193532
Si       1.93298225       1.12295588       8.29459568      -0.00000497       0.00003143      -0.00008736      -5.38288157
Si       1.93297196       1.11512820      10.65186640       0.00002217       0.00004184       0.00004480      -5.38047796
Si       1.93693737       3.35219301       1.96648173       0.00006117      -0.00003429       0.00006609      -5.38669193
Si       1.93328644       3.35746313       4.34287321       0.00005528      -0.00006188       0.00007640      -5.38829502
Si       1.93155419       5.57685519       5.13655205       0.00004903       0.00009513      -0.00004484      -5.38032542
Si       1.94340963       5.58522475       7.49321361       0.00001570       0.00001762       0.00011977      -5.37099471
Si       3.86264528      13.39831993       1.97181658       0.00005509       0.00003009      -0.00011053      -5.39028944
Si       3.86144510       0.00219132       4.34139336       0.00002800       0.00006911      -0.00004201      -5.38638333
Si       3.86186277       2.24738458       5.13660389       0.00005573      -0.00001712      -0.00002720      -5.37986812
Si       3.86433583       2.24204518       7.49834591       0.00003460      -0.00000991       0.00009828      -5.38631279
Si       3.86187074       4.46488056       8.28131398       0.00011867       0.00013565       0.00002932      -5.38027622
Si       3.86646095       4.46968847      10.65377336       0.00005314      -0.00000788      -0.00002935      -5.39456967
Si       5.80286365       1.12583611       8.28497171       0.00000000       0.00003155      -0.00005267      -5.38797139
Si       5.80286365       1.12063952      10.65824092       0.00000000      -0.00000323       0.00005462      -5.39568259
Si       5.80286365       3.36155088       1.97802355      -0.00000000      -0.00004835       0.00001055      -5.38891274
Si       5.80286365       3.34814035       4.34332398       0.00000000       0.00004623       0.00008689      -5.35889599
P        5.80286365       5.59319450       5.13300673       0.00000000       0.00007158      -0.00000057      -5.81408579
Si       5.80286365       5.58285012       7.50768646      -0.00000000      -0.00001347       0.00015011      -5.36152976
Si       7.74308201      13.39831993       1.97181658      -0.00005509       0.00003009      -0.00011053      -5.39028944
Si       7.74428220       0.00219132       4.34139336      -0.00002800       0.00006911      -0.00004201      -5.38638333
Si       7.74386452       2.24738458       5.13660389      -0.00005573      -0.00001712      -0.00002720      -5.37986812
Si       7.74139146       2.24204518       7.49834591      -0.00003460      -0.00000991       0.00009828      -5.38631279
Si       7.74385655       4.46488056       8.28131398      -0.00011867       0.00013565       0.00002932      -5.38027622
Si       7.73926635       4.46968847      10.65377336      -0.00005314      -0.00000788      -0.00002935      -5.39456967
Si       9.67274504       1.12295588       8.29459568       0.00000497       0.00003143      -0.00008736      -5.38288157
Si       9.67275533       1.11512820      10.65186640      -0.00002217       0.00004184       0.00004480      -5.38047796
Si       9.66878992       3.35219301       1.96648173      -0.00006117      -0.00003429       0.00006609      -5.38669193
Si       9.67244085       3.35746313       4.34287321      -0.00005528      -0.00006188       0.00007640      -5.38829502
Si       9.67417311       5.57685519       5.13655205      -0.00004903       0.00009513      -0.00004484      -5.38032542
Si       9.66231767       5.58522475       7.49321361      -0.00001570       0.00001762       0.00011977      -5.37099471
Si       0.00000000       6.70478525       1.96343663       0.00000000       0.00007690      -0.00000191      -5.38601030
Si       0.00000000       6.69993787       4.33959664       0.00000000      -0.00007379       0.00009640      -5.39672263
Si       0.00000000       8.93064557       5.13661487      -0.00000000       0.00013372       0.00003101      -5.39113836
Si       0.00000000       8.92574035       7.51073771      -0.00000000       0.00004516      -0.00000230      -5.38038835
Si       0.00000000      11.16364669       8.28594740       0.00000000      -0.00000073      -0.00001159      -5.36546955
P        0.00000000      11.16788593      10.66003825       0.00000000       0.00004949      -0.00001172      -5.81472556
Si       1.92714497       7.81159138       8.29196549       0.00001029       0.00001674      -0.00010560      -5.37662321
Si       1.92703314       7.81441846      10.65106622       0.00006253      -0.00001923       0.00005187      -5.38297727
Si       1.93759925      10.04438123       1.97712061      -0.00000555       0.00006060      -0.00007932      -5.36296235
Si       1.92828810      10.05049040       4.34166013       0.00004550      -0.00003295      -0.00002192      -5.38910563
Si       1.92933506      12.27993544       5.13129854       0.00003657       0.00001852       0.00000649      -5.39284664
Si       1.93123354      12.28824877       7.51147702      -0.00001677       0.00000696      -0.00006536      -5.39146530
Si       3.86727931       6.69519322       1.97494842      -0.00000066       0.00006386       0.00000931      -5.38627200
Si       3.85855053       6.70147469       4.34152447      -0.00001820      -0.00004785       0.00009646      -5.36118460
Si       3.87114519       8.93006075       5.13501836      -0.00003315       0.00008308      -0.00009746      -5.38968777
Si       3.86377504       8.92889639       7.50150143       0.00003614       0.00001677       0.00000872      -5.38711205
Si       3.86268135      11.16702766       8.29181000       0.00005913       0.00003617      -0.00008690      -5.39038782
Si       3.86170215      11.16802193      10.65735339       0.00001135      -0.00005851      -0.00003157      -5.38579913
Si       5.80286365       7.81786615       8.28080476      -0.00000000      -0.00000321      -0.00000696      -5.38904224
Si       5.80286365       7.80889957      10.65749566       0.00000000      -0.00007549      -0.00011351      -5.39209957
Si       5.80286365      10.04338061       1.97767104      -0.00000000       0.00007705      -0.00009709      -5.39101689
Si       5.80286365      10.04223533       4.34741994       0.00000000      -0.00002137      -0.00003693      -5.38848057
Si       5.80286365      12.28347305       5.13031352      -0.00000000      -0.00007072      -0.00001970      -5.39007543
Si       5.80286365      12.28696251       7.50195962      -0.00000000       0.00007274       0.00005497      -5.39182934
Si       7.73844798       6.69519322       1.97494842       0.00000066       0.00006386       0.00000931      -5.38627200
Si       7.74717677       6.70147469       4.34152447       0.00001820      -0.00004785       0.00009646      -5.36118460
Si       7.73458210       8.93006075       5.13501836       0.00003315       0.00008308      -0.00009746      -5.38968777
Si       7.74195225       8.92889639       7.50150143      -0.00003614       0.00001677       0.00000872      -5.38711205
Si       7.74304594      11.16702766       8.29181000      -0.00005913       0.00003617      -0.00008690      -5.39038782
Si       7.74402514      11.16802193      10.65735339      -0.00001135      -0.00005851      -0.00003157      -5.38579913
Si       9.67858232       7.81159138       8.29196549      -0.00001029       0.00001674      -0.00010560      -5.37662321
Si       9.67869415       7.81441846      10.65106622      -0.00006253      -0.00001923       0.00005187      -5.38297727
Si       9.66812805      10.04438123       1.97712061       0.00000555       0.00006060      -0.00007932      -5.36296235
Si       9.67743919      10.05049040       4.34166013      -0.00004550      -0.00003295      -0.00002192      -5.38910563
Si       9.67639223      12.27993544       5.13129854      -0.00003657       0.00001852       0.00000649      -5.39284664
Si       9.67449376      12.28824877       7.51147702       0.00001677       0.00000696      -0.00006536      -5.39146530
Si       0.00000000       0.01323487      11.44460357      -0.00000000       0.00004317      -0.00004633      -5.35711754
Si       0.00000000      13.39332759      13.81058968      -0.00000000      -0.00002746      -0.00004970      -5.38614521
Si       0.00000000       2.22996012      14.60575170       0.00000000       0.00000818      -0.00003004      -5.39616623
Si       0.00000000       2.22543191      16.98000898      -0.00000000      -0.00002849       0.00014525      -5.38360171
Si       0.00000000       4.46370656      17.76600532      -0.00000000      -0.00002293      -0.00007010      -5.39094396
Si      11.60572729       4.46859449      20.13847197       0.00000000       0.00003273      -0.00003089      -5.39052155
Si       1.93430492       1.11140359      17.77142299      -0.00000328       0.00002948      -0.00001050      -5.38702588
Si       1.93391225       1.10920985      20.13680366      -0.00002034       0.00004324       0.00003112      -5.38378883
Si       1.93783208       3.35238694      11.43814673       0.00002995      -0.00000695       0.00002859      -5.38422043
Si       1.93696619       3.35546309      13.81277442       0.00004663      -0.00004872       0.00001156      -5.39107454
Si       1.94004186       5.58261640      14.60698735       0.00000051       0.00004539      -0.00003598      -5.38599379
Si       1.93823294       5.58229276      16.97214311       0.00000699      -0.00009060       0.00008565      -5.38810471
Si       3.86296851      13.39794003      11.44298268       0.00002417       0.00005462      -0.00011169      -5.38984580
Si       3.86277712       0.00020863      13.81278985      -0.00003741       0.00003671      -0.00003617      -5.38714461
Si       3.86689941       2.24306170      14.60655499       0.00001746      -0.00000042      -0.00002248      -5.38404882
Si       3.86813624       2.23940413      16.97203347       0.00000952      -0.00001329       0.00005117      -5.38700377
Si       3.86942606       4.46863170      17.75911686       0.00009365       0.00007366       0.00009189      -5.38647783
Si       3.87154233       4.47091489      20.13955064       0.00004113      -0.00005490      -0.00006462      -5.39115657
Si       5.80286365       1.12566459      17.76355800       0.00000000      -0.00000392      -0.00004445      -5.38329406
Si       5.80286365       1.12203644      20.13916670       0.00000000       0.00003621       0.00000406      -5.39403883
Si       5.80286365       3.36102355      11.44743366      -0.00000000      -0.00001488       0.00000216      -5.38864650
Si       5.80286365       3.34544231      13.81194670      -0.00000000       0.00001617       0.00005003      -5.36208172
P        5.80286365       5.58664474      14.60604430       0.00000000       0.00002949      -0.00003022      -5.81543502
Si       5.80286365       5.58582327      16.98252340      -0.00000000      -0.00002779       0.00005033      -5.36274657
Si       7.74275879      13.39794003      11.44298268      -0.00002417       0.00005462      -0.00011169      -5.38984580
Si       7.74295017       0.00020863      13.81278985       0.00003741       0.00003671      -0.00003617      -5.38714461
Si       7.73882789       2.24306170      14.60655499      -0.00001746      -0.00000042      -0.00002248      -5.38404882
Si       7.73759105       2.23940413      16.97203347      -0.00000952      -0.00001329       0.00005117      -5.38700377
Si       7.73630124       4.46863170      17.75911686      -0.00009365       0.00007366       0.00009189      -5.38647783
Si       7.73418496       4.47091489      20.13955064      -0.00004113      -0.00005490      -0.00006462      -5.39115657
Si       9.67142237       1.11140359      17.77142299       0.00000328       0.00002948      -0.00001050      -5.38702588
Si       9.67181504       1.10920985      20.13680366       0.00002034       0.00004324       0.00003112      -5.38378883
Si       9.66789521       3.35238694      11.43814673      -0.00002995      -0.00000695       0.00002859      -5.38422043
Si       9.66876110       3.35546309      13.81277442      -0.00004663      -0.00004872       0.00001156      -5.39107454
Si       9.66568544       5.58261640      14.60698735      -0.00000051       0.00004539      -0.00003598      -5.38599379
Si       9.66749436       5.58229276      16.97214311      -0.00000699      -0.00009060       0.00008565      -5.38810471
Si       0.00000000       6.70618221      11.43427489      -0.00000000       0.00007822      -0.00004833      -5.38410418
Si       0.00000000       6.70489398      13.80849176       0.00000000      -0.00009935       0.00004578      -5.39621755
Si       0.00000000       8.93766173      14.60599286      -0.00000000       0.00006190       0.00004686      -5.39398222
Si       0.00000000       8.93231001      16.98417324      -0.00000000       0.00002057      -0.00006112      -5.38449115
Si       0.00000000      11.16543744      17.76237043      -0.00000000       0.00000715       0.00000824      -5.36222313
P       11.60572729      11.16505978      20.13960716      -0.00000000       0.00003397       0.00002129      -5.81610224
Si       1.93479633       7.81725188      17.76790436      -0.00003090      -0.00004288      -0.00002267      -5.38210176
Si       1.93061101       7.81877497      20.13542722       0.00006579      -0.00004113       0.00003014      -5.38723733
Si       1.93806958      10.04492360      11.44861118      -0.00004639       0.00005339      -0.00012303      -5.36202226
Si       1.92989452      10.05174094      13.81329012       0.00001161      -0.00005162      -0.00005515      -5.39006142
Si       1.93030924      12.28047392      14.60503735      -0.00004419       0.00002917       0.00004658      -5.39060336
Si       1.93311806      12.28266272      16.98545606      -0.00008407      -0.00006720      -0.00009053      -5.38655261
Si       3.86749489       6.69573574      11.44502321      -0.00001928       0.00008777      -0.00003553      -5.38471437
Si       3.86293089       6.70335593      13.81199056       0.00000321      -0.00010251       0.00001775      -5.36173097
Si       3.87137074       8.93045253      14.60966022      -0.00005167      -0.00000914      -0.00006030      -5.38659569
Si       3.86797447       8.93306539      16.97740503       0.00007624      -0.00004250      -0.00000839      -5.38201292
Si       3.86433378      11.16859755      17.77210968       0.00004204       0.00000497      -0.00002322      -5.38809156
Si       3.86215354      11.16828040      20.13810305       0.00001803      -0.00008373      -0.00000911      -5.38405167
Si       5.80286365       7.81810920      17.76137229      -0.00000000      -0.00013796       0.00002111      -5.38454215
Si       5.80286365       7.81025904      20.14021281       0.00000000      -0.00008486      -0.00011887      -5.39272816
Si       5.80286365      10.04369368      11.44984366       0.00000000       0.00003382      -0.00012679      -5.39056667
Si       5.80286365      10.04277900      13.82034640       0.00000000      -0.00009992      -0.00004565      -5.38911787
Si       5.80286365      12.28277019      14.60505880      -0.00000000      -0.00009024       0.00002712      -5.38924113
Si       5.80286365      12.28775199      16.97819960      -0.00000000       0.00004740       0.00004458      -5.39065054
Si       7.73823240       6.69573574      11.44502321       0.00001928       0.00008777      -0.00003553      -5.38471437
Si       7.74279640       6.70335593      13.81199056      -0.00000321      -0.00010251       0.00001775      -5.36173097
Si       7.73435656       8.93045253      14.60966022       0.00005167      -0.00000914      -0.00006030      -5.38659569
Si       7.73775283       8.93306539      16.97740503      -0.00007624      -0.00004250      -0.00000839      -5.38201292
Si       7.74139352      11.16859755      17.77210968      -0.00004204       0.00000497      -0.00002322      -5.38809156
Si       7.74357376      11.16828040      20.13810305      -0.00001803      -0.00008373      -0.00000911      -5.38405167
Si       9.67093097       7.81725188      17.76790436       0.00003090      -0.00004288      -0.00002267      -5.38210176
Si       9.67511628       7.81877497      20.13542722      -0.00006579      -0.00004113       0.00003014      -5.38723733
Si       9.66765771      10.04492360      11.44861118       0.00004639       0.00005339      -0.00012303      -5.36202226
Si       9.67583277      10.05174094      13.81329012      -0.00001161      -0.00005162      -0.00005515      -5.39006142
Si       9.67541805      12.28047392      14.60503735       0.00004419       0.00002917       0.00004658      -5.39060336
Si       9.67260923      12.28266272      16.98545606       0.00008407      -0.00006720      -0.00009053      -5.38655261
