216
Lattice="11.605727294873521 0.0 0.0 0.0 13.401139555673227 0.0 0.0 0.0 28.428109966331448" Properties=species:S:1:pos:R:3:forces:R:3 energy=-1164.719054612494 free_energy=-1164.719054612494 pbc="T T T"
Si       0.00000000       0.00000000      20.92624761       0.00000000       0.00007153      -0.00000589
Si      11.60572729      13.40113956      23.29525678       0.00000000       0.00003680      -0.00005836
Si      11.60572729       2.23352326      24.08492650      -0.00000000       0.00001829      -0.00003446
Si      11.60572729       2.23352326      26.45393566      -0.00000000       0.00000874       0.00000333
P       11.60572729       4.46704652      27.24360538       0.00000000       0.00008470       0.00000908
Si       0.00000000       4.46704652       1.18450458      -0.00000000       0.00002281       0.00000348
Si       1.93428788       1.11676163      27.24360538       0.00001549      -0.00004516      -0.00002115
Si       1.93428788       1.11676163       1.18450458      -0.00005080       0.00007210       0.00001661
Si       1.93428788       3.35028489      20.92624761      -0.00004633       0.00004954      -0.00000518
Si       1.93428788       3.35028489      23.29525678      -0.00001689      -0.00000970       0.00010401
Si       1.93428788       5.58380815      24.08492650      -0.00003423       0.00005058       0.00006445
Si       1.93428788       5.58380815      26.45393566       0.00002308      -0.00004973       0.00002076
Si       3.86857576      13.40113956      20.92624761      -0.00003005      -0.00012148      -0.00004058
Si       3.86857576      13.40113956      23.29525678      -0.00009016      -0.00002727       0.00000392
Si       3.86857576       2.23352326      24.08492650      -0.00000554      -0.00008837       0.00006177
Si       3.86857576       2.23352326      26.45393566       0.00000548       0.00003672      -0.00001278
Si       3.86857576       4.46704652      27.24360538       0.00001306      -0.00004478       0.00008702
Si       3.86857576       4.46704652       1.18450458      -0.00000981       0.00007275       0.00002799
Si       5.80286365       1.11676163      27.24360538      -0.00000000      -0.00002797       0.00005066
Si       5.80286365       1.11676163       1.18450458      -0.00000000       0.00003194       0.00007786
Si       5.80286365       3.35028489      20.92624761      -0.00000000      -0.00013095       0.00012024
Si       5.80286365       3.35028489      23.29525678      -0.00000000      -0.00000862       0.00007218
P        5.80286365       5.58380815      24.08492650       0.00000000      -0.00009661       0.00002770
Si       5.80286365       5.58380815      26.45393566      -0.00000000       0.00000660       0.00004604
Si       7.73715153      13.40113956      20.92624761       0.00003005      -0.00012148      -0.00004058
Si       7.73715153      13.40113956      23.29525678       0.00009016      -0.00002727       0.00000392
Si       7.73715153       2.23352326      24.08492650       0.00000554      -0.00008837       0.00006177
Si       7.73715153       2.23352326      26.45393566      -0.00000548       0.00003672      -0.00001278
Si       7.73715153       4.46704652      27.24360538      -0.00001306      -0.00004478       0.00008702
Si       7.73715153       4.46704652       1.18450458       0.00000981       0.00007275       0.00002799
Si       9.67143941       1.11676163      27.24360538      -0.00001549      -0.00004516      -0.00002115
Si       9.67143941       1.11676163       1.18450458       0.00005080       0.00007210       0.00001661
Si       9.67143941       3.35028489      20.92624761       0.00004633       0.00004954      -0.00000518
Si       9.67143941       3.35028489      23.29525678       0.00001689      -0.00000970       0.00010401
Si       9.67143941       5.58380815      24.08492650       0.00003423       0.00005058       0.00006445
Si       9.67143941       5.58380815      26.45393566      -0.00002308      -0.00004973       0.00002076
Si      11.60572729       6.70056978      20.92624761       0.00000000       0.00006797       0.00000300
Si      11.60572729       6.70056978      23.29525678       0.00000000      -0.00002060       0.00007708
Si      11.60572729       8.93409304      24.08492650       0.00000000       0.00001307       0.00000117
Si      11.60572729       8.93409304      26.45393566      -0.00000000      -0.00000852      -0.00005051
Si      11.60572729      11.16761630      27.24360538       0.00000000      -0.00002579      -0.00003040
P        0.00000000      11.16761630       1.18450458       0.00000000      -0.00001173       0.00000800
Si       1.93428788       7.81733141      27.24360538      -0.00004265      -0.00005648       0.00006386
Si       1.93428788       7.81733141       1.18450458       0.00003457      -0.00004236      -0.00007213
Si       1.93428788      10.05085467      20.92624761      -0.00002465      -0.00000661       0.00003613
Si       1.93428788      10.05085467      23.29525678      -0.00006061      -0.00004674      -0.00003104
Si       1.93428788      12.28437793      24.08492650      -0.00004513      -0.00006341      -0.00003474
Si       1.93428788      12.28437793      26.45393566      -0.00002849      -0.00000247      -0.00000767
Si       3.86857576       6.70056978      20.92624761      -0.00001709      -0.00006242       0.00004424
Si       3.86857576       6.70056978      23.29525678       0.00005384      -0.00008864      -0.00001062
Si       3.86857576       8.93409304      24.08492650      -0.00005644      -0.00004749       0.00004045
Si       3.86857576       8.93409304      26.45393566       0.00006284      -0.00007868      -0.00007535
Si       3.86857576      11.16761630      27.24360538      -0.00003161      -0.00002083      -0.00006296
Si       3.86857576      11.16761630       1.18450458       0.00004181      -0.00001462       0.00000709
Si       5.80286365       7.81733141      27.24360538       0.00000000      -0.00013795       0.00004797
Si       5.80286365       7.81733141       1.18450458       0.00000000      -0.00006854      -0.00006766
Si       5.80286365      10.05085467      20.92624761      -0.00000000      -0.00002551      -0.00004019
Si       5.80286365      10.05085467      23.29525678      -0.00000000      -0.00007399      -0.00001630
Si       5.80286365      12.28437793      24.08492650       0.00000000      -0.00013806       0.00003701
Si       5.80286365      12.28437793      26.45393566       0.00000000      -0.00005591       0.00001699
Si       7.73715153       6.70056978      20.92624761       0.00001709      -0.00006242       0.00004424
Si       7.73715153       6.70056978      23.29525678      -0.00005384      -0.00008864      -0.00001062
Si       7.73715153       8.93409304      24.08492650       0.00005644      -0.00004749       0.00004045
Si       7.73715153       8.93409304      26.45393566      -0.00006284      -0.00007868      -0.00007535
Si       7.73715153      11.16761630      27.24360538       0.00003161      -0.00002083      -0.00006296
Si       7.73715153      11.16761630       1.18450458      -0.00004181      -0.00001462       0.00000709
Si       9.67143941       7.81733141      27.24360538       0.00004265      -0.00005648       0.00006386
Si       9.67143941       7.81733141       1.18450458      -0.00003457      -0.00004236      -0.00007213
Si       9.67143941      10.05085467      20.92624761       0.00002465      -0.00000661       0.00003613
Si       9.67143941      10.05085467      23.29525678       0.00006061      -0.00004674      -0.00003104
Si       9.67143941      12.28437793      24.08492650       0.00004513      -0.00006341      -0.00003474
Si       9.67143941      12.28437793      26.45393566       0.00002849      -0.00000247      -0.00000767
Si      11.60572729      13.40113956       1.97417430       0.00000000       0.00003742       0.00002164
Si      11.60572729      13.40113956       4.34318347      -0.00000000       0.00015468      -0.00004682
Si      11.60572729       2.23352326       5.13285319      -0.00000000       0.00002292      -0.00007643
Si      11.60572729       2.23352326       7.50186235       0.00000000      -0.00007416       0.00000181
P       11.60572729       4.46704652       8.29153207       0.00000000       0.00009728      -0.00003991
Si       0.00000000       4.46704652      10.66054124       0.00000000      -0.00000753       0.00005485
Si       1.93428788       1.11676163       8.29153207       0.00000245       0.00002401      -0.00003324
Si       1.93428788       1.11676163      10.66054124      -0.00009320       0.00001092      -0.00000714
Si       1.93428788       3.35028489       1.97417430       0.00005852       0.00006029      -0.00002314
Si       1.93428788       3.35028489       4.34318347      -0.00003241       0.00005980       0.00006520
Si       1.93428788       5.58380815       5.13285319      -0.00001695       0.00002162      -0.00009573
Si       1.93428788       5.58380815       7.50186235       0.00003697      -0.00002016      -0.00000732
Si       3.86857576      13.40113956       1.97417430       0.00004581      -0.00002846      -0.00004957
Si       3.86857576      13.40113956       4.34318347      -0.00005878       0.00008059       0.00004400
Si       3.86857576       2.23352326       5.13285319       0.00003810      -0.00001930       0.00002140
Si       3.86857576       2.23352326       7.50186235      -0.00007895       0.00008592      -0.00004294
Si       3.86857576       4.46704652       8.29153207       0.00002934      -0.00003016      -0.00000709
Si       3.86857576       4.46704652      10.66054124      -0.00007004       0.00009811       0.00003669
Si       5.80286365       1.11676163       8.29153207       0.00000000       0.00004595       0.00001068
Si       5.80286365       1.11676163      10.66054124       0.00000000       0.00004138       0.00011203
Si       5.80286365       3.35028489       1.97417430      -0.00000000      -0.00010689       0.00012058
Si       5.80286365       3.35028489       4.34318347      -0.00000000       0.00002730      -0.00003343
P        5.80286365       5.58380815       5.13285319       0.00000000      -0.00001903      -0.00004719
Si       5.80286365       5.58380815       7.50186235      -0.00000000       0.00010404      -0.00000351
Si       7.73715153      13.40113956       1.97417430      -0.00004581      -0.00002846      -0.00004957
Si       7.73715153      13.40113956       4.34318347       0.00005878       0.00008059       0.00004400
Si       7.73715153       2.23352326       5.13285319      -0.00003810      -0.00001930       0.00002140
Si       7.73715153       2.23352326       7.50186235       0.00007895       0.00008592      -0.00004294
Si       7.73715153       4.46704652       8.29153207      -0.00002934      -0.00003016      -0.00000709
Si       7.73715153       4.46704652      10.66054124       0.00007004       0.00009811       0.00003669
Si       9.67143941       1.11676163       8.29153207      -0.00000245       0.00002401      -0.00003324
Si       9.67143941       1.11676163      10.66054124       0.00009320       0.00001092      -0.00000714
Si       9.67143941       3.35028489       1.97417430      -0.00005852       0.00006029      -0.00002314
Si       9.67143941       3.35028489       4.34318347       0.00003241       0.00005980       0.00006520
Si       9.67143941       5.58380815       5.13285319       0.00001695       0.00002162      -0.00009573
Si       9.67143941       5.58380815       7.50186235      -0.00003697      -0.00002016      -0.00000732
Si      11.60572729       6.70056978       1.97417430      -0.00000000       0.00002808      -0.00004587
Si      11.60572729       6.70056978       4.34318347      -0.00000000      -0.00002729       0.00009560
Si      11.60572729       8.93409304       5.13285319      -0.00000000       0.00005455      -0.00006199
Si      11.60572729       8.93409304       7.50186235      -0.00000000       0.00000741       0.00005436
Si      11.60572729      11.16761630       8.29153207       0.00000000       0.00004973      -0.00003198
P        0.00000000      11.16761630      10.66054124       0.00000000       0.00002759      -0.00000975
Si       1.93428788       7.81733141       8.29153207      -0.00004945       0.00007063       0.00003125
Si       1.93428788       7.81733141      10.66054124      -0.00002110      -0.00000553       0.00000337
Si       1.93428788      10.05085467       1.97417430      -0.00008526       0.00001072      -0.00005116
Si       1.93428788      10.05085467       4.34318347      -0.00004400       0.00004006       0.00001809
Si       1.93428788      12.28437793       5.13285319      -0.00001796      -0.00005408      -0.00006175
Si       1.93428788      12.28437793       7.50186235      -0.00008512       0.00008026       0.00003360
Si       3.86857576       6.70056978       1.97417430       0.00006112      -0.00012892       0.00000691
Si       3.86857576       6.70056978       4.34318347       0.00006171      -0.00005323      -0.00001912
Si       3.86857576       8.93409304       5.13285319      -0.00002981       0.00001365      -0.00002639
Si       3.86857576       8.93409304       7.50186235       0.00000783       0.00003553      -0.00004073
Si       3.86857576      11.16761630       8.29153207      -0.00005810       0.00004768      -0.00002355
Si       3.86857576      11.16761630      10.66054124      -0.00002006       0.00005957       0.00004654
Si       5.80286365       7.81733141       8.29153207      -0.00000000      -0.00006027      -0.00001585
Si       5.80286365       7.81733141      10.66054124       0.00000000       0.00003992      -0.00004969
Si       5.80286365      10.05085467       1.97417430      -0.00000000      -0.00008747      -0.00006127
Si       5.80286365      10.05085467       4.34318347       0.00000000      -0.00003205      -0.00002969
Si       5.80286365      12.28437793       5.13285319       0.00000000      -0.00002512      -0.00004908
Si       5.80286365      12.28437793       7.50186235      -0.00000000       0.00006762       0.00002171
Si       7.73715153       6.70056978       1.97417430      -0.00006112      -0.00012892       0.00000691
Si       7.73715153       6.70056978       4.34318347      -0.00006171      -0.00005323      -0.00001912
Si       7.73715153       8.93409304       5.13285319       0.00002981       0.00001365      -0.00002639
Si       7.73715153       8.93409304       7.50186235      -0.00000783       0.00003553      -0.00004073
Si       7.73715153      11.16761630       8.29153207       0.00005810       0.00004768      -0.00002355
Si       7.73715153      11.16761630      10.66054124       0.00002006       0.00005957       0.00004654
Si       9.67143941       7.81733141       8.29153207       0.00004945       0.00007063       0.00003125
Si       9.67143941       7.81733141      10.66054124       0.00002110      -0.00000553       0.00000337
Si       9.67143941      10.05085467       1.97417430       0.00008526       0.00001072      -0.00005116
Si       9.67143941      10.05085467       4.34318347       0.00004400       0.00004006       0.00001809
Si       9.67143941      12.28437793       5.13285319       0.00001796      -0.00005408      -0.00006175
Si       9.67143941      12.28437793       7.50186235       0.00008512       0.00008026       0.00003360
Si      11.60572729      13.40113956      11.45021096      -0.00000000       0.00014849      -0.00003750
Si      11.60572729      13.40113956      13.81922012       0.00000000       0.00006949       0.00000430
Si      11.60572729       2.23352326      14.60888984      -0.00000000       0.00003712      -0.00010068
Si      11.60572729       2.23352326      16.97789901      -0.00000000      -0.00005669      -0.00004393
Si      11.60572729       4.46704652      17.76756873       0.00000000       0.00007533      -0.00003293
Si       0.00000000       4.46704652      20.13657789       0.00000000      -0.00004938      -0.00000231
Si       1.93428788       1.11676163      17.76756873      -0.00005429      -0.00001516      -0.00009646
Si       1.93428788       1.11676163      20.13657789      -0.00010832      -0.00004238      -0.00003114
Si       1.93428788       3.35028489      11.45021096      -0.00002213       0.00006640      -0.00000872
Si       1.93428788       3.35028489      13.81922012      -0.00008091       0.00001860       0.00009935
Si       1.93428788       5.58380815      14.60888984      -0.00005741       0.00004984       0.00000424
Si       1.93428788       5.58380815      16.97789901       0.00000033      -0.00005702       0.00000551
Si       3.86857576      13.40113956      11.45021096      -0.00002361      -0.00000810      -0.00007405
Si       3.86857576      13.40113956      13.81922012      -0.00010980       0.00005659       0.00006080
Si       3.86857576       2.23352326      14.60888984      -0.00007274      -0.00001746       0.00000391
Si       3.86857576       2.23352326      16.97789901      -0.00008365       0.00005780      -0.00002359
Si       3.86857576       4.46704652      17.76756873      -0.00006400      -0.00002391       0.00000091
Si       3.86857576       4.46704652      20.13657789      -0.00004360       0.00007963       0.00001416
Si       5.80286365       1.11676163      17.76756873      -0.00000000      -0.00004598      -0.00000781
Si       5.80286365       1.11676163      20.13657789       0.00000000      -0.00003025       0.00002694
Si       5.80286365       3.35028489      11.45021096       0.00000000      -0.00005195       0.00009205
Si       5.80286365       3.35028489      13.81922012      -0.00000000       0.00003095       0.00003992
P        5.80286365       5.58380815      14.60888984       0.00000000       0.00002099      -0.00000344
Si       5.80286365       5.58380815      16.97789901      -0.00000000       0.00005631       0.00002685
Si       7.73715153      13.40113956      11.45021096       0.00002361      -0.00000810      -0.00007405
Si       7.73715153      13.40113956      13.81922012       0.00010980       0.00005659       0.00006080
Si       7.73715153       2.23352326      14.60888984       0.00007274      -0.00001746       0.00000391
Si       7.73715153       2.23352326      16.97789901       0.00008365       0.00005780      -0.00002359
Si       7.73715153       4.46704652      17.76756873       0.00006400      -0.00002391       0.00000091
Si       7.73715153       4.46704652      20.13657789       0.00004360       0.00007963       0.00001416
Si       9.67143941       1.11676163      17.76756873       0.00005429      -0.00001516      -0.00009646
Si       9.67143941       1.11676163      20.13657789       0.00010832      -0.00004238      -0.00003114
Si       9.67143941       3.35028489      11.45021096       0.00002213       0.00006640      -0.00000872
Si       9.67143941       3.35028489      13.81922012       0.00008091       0.00001860       0.00009935
Si       9.67143941       5.58380815      14.60888984       0.00005741       0.00004984       0.00000424
Si       9.67143941       5.58380815      16.97789901      -0.00000033      -0.00005702       0.00000551
Si      11.60572729       6.70056978      11.45021096      -0.00000000       0.00008348      -0.00002285
Si      11.60572729       6.70056978      13.81922012      -0.00000000      -0.00000440       0.00012196
Si      11.60572729       8.93409304      14.60888984      -0.00000000       0.00005997      -0.00000509
Si      11.60572729       8.93409304      16.97789901      -0.00000000      -0.00008874       0.00001158
Si      11.60572729      11.16761630      17.76756873       0.00000000       0.00004248      -0.00008549
P        0.00000000      11.16761630      20.13657789      -0.00000000      -0.00001126      -0.00001528
Si       1.93428788       7.81733141      17.76756873      -0.00007648      -0.00000328       0.00002244
Si       1.93428788       7.81733141      20.13657789      -0.00000203      -0.00007889      -0.00003176
Si       1.93428788      10.05085467      11.45021096      -0.00003156       0.00005423      -0.00000492
Si       1.93428788      10.05085467      13.81922012      -0.00007909      -0.00002750       0.00004812
Si       1.93428788      12.28437793      14.60888984      -0.00009882       0.00002517      -0.00005022
Si       1.93428788      12.28437793      16.97789901      -0.00008190       0.00000922      -0.00000395
Si       3.86857576       6.70056978      11.45021096      -0.00000240      -0.00002006       0.00002644
Si       3.86857576       6.70056978      13.81922012      -0.00001155      -0.00002336       0.00004025
Si       3.86857576       8.93409304      14.60888984      -0.00006818       0.00003485      -0.00000135
Si       3.86857576       8.93409304      16.97789901      -0.00001351      -0.00001034      -0.00002463
Si       3.86857576      11.16761630      17.76756873      -0.00008252       0.00001767      -0.00005007
Si       3.86857576      11.16761630      20.13657789      -0.00002662      -0.00001802       0.00000906
Si       5.80286365       7.81733141      17.76756873       0.00000000      -0.00007109      -0.00004645
Si       5.80286365       7.81733141      20.13657789       0.00000000      -0.00006929      -0.00007228
Si       5.80286365      10.05085467      11.45021096       0.00000000       0.00006428      -0.00004798
Si       5.80286365      10.05085467      13.81922012       0.00000000       0.00002463       0.00007482
Si       5.80286365      12.28437793      14.60888984       0.00000000      -0.00005537      -0.00001209
Si       5.80286365      12.28437793      16.97789901      -0.00000000       0.00002622       0.00003565
Si       7.73715153       6.70056978      11.45021096       0.00000240      -0.00002006       0.00002644
Si       7.73715153       6.70056978      13.81922012       0.00001155      -0.00002336       0.00004025
Si       7.73715153       8.93409304      14.60888984       0.00006818       0.00003485      -0.00000135
Si       7.73715153       8.93409304      16.97789901       0.00001351      -0.00001034      -0.00002463
Si       7.73715153      11.16761630      17.76756873       0.00008252       0.00001767      -0.00005007
Si       7.73715153      11.16761630      20.13657789       0.00002662      -0.00001802       0.00000906
Si       9.67143941       7.81733141      17.76756873       0.00007648      -0.00000328       0.00002244
Si       9.67143941       7.81733141      20.13657789       0.00000203      -0.00007889      -0.00003176
Si       9.67143941      10.05085467      11.45021096       0.00003156       0.00005423      -0.00000492
Si       9.67143941      10.05085467      13.81922012       0.00007909      -0.00002750       0.00004812
Si       9.67143941      12.28437793      14.60888984       0.00009882       0.00002517      -0.00005022
Si       9.67143941      12.28437793      16.97789901       0.00008190       0.00000922      -0.00000395
