360
Lattice="11.605727294873521 0.0 0.0 0.0 16.412976941613742 0.0 0.0 0.0 38.6857576495784" Properties=species:S:1:pos:R:3:move_mask:L:1:forces:R:3 energy=-1745.4154980791172 free_energy=-1745.4154980791172 pbc="F F F"
Si       5.31929168       7.52261443      19.78776504  F      -0.54228217      -0.74227930      -1.09047702
Si       5.31929168       6.15486635     -18.82062110  F      -0.85638637       0.15975913       1.05506781
Si      -4.35214774      -6.15486635     -18.82062110  F       0.85638639      -0.15975921       1.05506790
Si      -4.35214774      -7.52261443     -16.88633321  F       0.06914290       0.94437144      -0.22497608
Si      -2.41785985       7.52261443      19.78776504  F       0.39635028      -0.57380839      -0.86135214
Si      -2.41785985       6.15486635     -18.82062110  F      -0.11495045      -0.24193858       0.66394972
Si      -0.48357197      -6.15486635     -18.82062110  F       0.05494342       0.07918176       0.64001026
Si      -0.48357197      -7.52261443     -16.88633321  F      -0.00156795       0.36819937      -0.25427274
Si       1.45071591       7.52261443      19.78776504  F      -0.01695059      -0.54832414      -0.75759336
Si       1.45071591       6.15486635     -18.82062110  F      -0.05494339      -0.07918169       0.64001013
Si       3.38500379      -6.15486635     -18.82062110  F       0.11495040       0.24193874       0.66394968
Si       3.38500379      -7.52261443     -16.88633321  F      -0.10865429       0.43393017      -0.17593857
Si       5.31929168      -3.41937020      19.78776504  F      -0.77717839       0.02698781      -0.78479631
Si       5.31929168      -4.78711827     -18.82062110  F      -0.80104104       0.02990864       0.77358483
Si      -4.35214774      -0.68387404     -18.82062110  F       0.80578502       0.00471549       0.80302621
Si      -4.35214774      -2.05162212     -16.88633321  F       0.17834778       0.31081881      -0.18589240
Si      -2.41785985      -3.41937020      19.78776504  F      -0.23020120       0.30043669      -0.15135672
Si      -2.41785985      -4.78711827     -18.82062110  F      -0.23085608      -0.26338435       0.16561296
Si      -0.48357197      -0.68387404     -18.82062110  F       0.08819031       0.22206240       0.11553034
Si      -0.48357197      -2.05162212     -16.88633321  F       0.11523767      -0.00347809      -0.15921980
Si       1.45071591      -3.41937020      19.78776504  F      -0.08826795       0.21921392      -0.10428208
Si       1.45071591      -4.78711827     -18.82062110  F      -0.08720658      -0.07407408       0.07277670
Si       3.38500379      -0.68387404     -18.82062110  F       0.19609898       0.34384059       0.16349089
Si       3.38500379      -2.05162212     -16.88633321  F       0.06554245      -0.05000594      -0.11962003
Si       5.31929168       2.05162212      19.78776504  F      -0.81476051       0.00941536      -0.80256550
Si       5.31929168       0.68387404     -18.82062110  F      -0.80578490      -0.00471550       0.80302607
Si      -4.35214774       4.78711827     -18.82062110  F       0.80104132      -0.02990866       0.77358519
Si      -4.35214774       3.41937020     -16.88633321  F       0.15605501       0.29520484      -0.19055634
Si      -2.41785985       2.05162212      19.78776504  F      -0.18261175       0.32514976      -0.17585583
Si      -2.41785985       0.68387404     -18.82062110  F      -0.19609902      -0.34384042       0.16349092
Si      -0.48357197       4.78711827     -18.82062110  F       0.08720659       0.07407412       0.07277705
Si      -0.48357197       3.41937020     -16.88633321  F       0.11458344       0.01213635      -0.14287992
Si       1.45071591       2.05162212      19.78776504  F      -0.08874318       0.23285950      -0.13541735
Si       1.45071591       0.68387404     -18.82062110  F      -0.08819023      -0.22206233       0.11553031
Si       3.38500379       4.78711827     -18.82062110  F       0.23085607       0.26338444       0.16561315
Si       3.38500379       3.41937020     -16.88633321  F       0.11003319       0.02102690      -0.11158387
Si       5.31929168       7.52261443     -16.88633321  F      -0.06914296      -0.94437132      -0.22497616
Si       5.31929168       6.15486635     -14.95204533  F      -0.46779518       0.43931337       0.09196301
Si      -4.35214774      -6.15486635     -14.95204533  F       0.46779574      -0.43931392       0.09196425
Si      -4.35214774      -7.52261443     -13.01775745  F      -0.04985991       0.32750724      -0.58222936
Si      -2.41785985       7.52261443     -16.88633321  F       0.10865398      -0.43393026      -0.17593811
Si      -2.41785985       6.15486635     -14.95204533  F      -0.03361483      -0.11786497       0.08735544
Si      -0.48357197      -6.15486635     -14.95204533  F      -0.14794245       0.00850970      -0.03043994
Si      -0.48357197      -7.52261443     -13.01775745  F      -0.10846397       0.41402748       0.74616937
Si       1.45071591       7.52261443     -16.88633321  F       0.00156759      -0.36819984      -0.25427234
Si       1.45071591       6.15486635     -14.95204533  F       0.14794185      -0.00851033      -0.03044014
Si       3.38500379      -6.15486635     -14.95204533  F       0.03361683       0.11786460       0.08735573
Si       3.38500379      -7.52261443     -13.01775745  F      -0.17470021       0.16436464       0.08866915
Si       5.31929168      -3.41937020     -16.88633321  F      -0.15605509      -0.29520534      -0.19055713
Si       5.31929168      -4.78711827     -14.95204533  F      -0.14657718       0.13879455       0.07983511
Si      -4.35214774      -0.68387404     -14.95204533  F       0.12780741      -0.17542506       0.07840508
Si      -4.35214774      -2.05162212     -13.01775745  F       0.14182732      -0.00516743       0.02994044
Si      -2.41785985      -3.41937020     -16.88633321  F      -0.11003375      -0.02102691      -0.11158421
Si      -2.41785985      -4.78711827     -14.95204533  F      -0.19082315      -0.17901921       0.22623798
Si      -0.48357197      -0.68387404     -14.95204533  F       0.08645696       0.00720417       0.07134687
Si      -0.48357197      -2.05162212     -13.01775745  F       0.07163919       0.06244909       0.13993618
Si       1.45071591      -3.41937020     -16.88633321  F      -0.11458412      -0.01213613      -0.14288039
Si       1.45071591      -4.78711827     -14.95204533  F      -0.04115478      -0.14579800       0.12549019
Si       3.38500379      -0.68387404     -14.95204533  F       0.13312262       0.08749748       0.08611918
Si       3.38500379      -2.05162212     -13.01775745  F       0.15111679       0.07987711       0.01846571
Si       5.31929168       2.05162212     -16.88633321  F      -0.17834792      -0.31081908      -0.18589292
Si       5.31929168       0.68387404     -14.95204533  F      -0.12780527       0.17542661       0.07840378
Si      -4.35214774       4.78711827     -14.95204533  F       0.14658077      -0.13879266       0.07983614
Si      -4.35214774       3.41937020     -13.01775745  F       0.13356485       0.12908509       0.20933282
Si      -2.41785985       2.05162212     -16.88633321  F      -0.06554287       0.05000620      -0.11961977
Si      -2.41785985       0.68387404     -14.95204533  F      -0.13312122      -0.08749579       0.08611949
Si      -0.48357197       4.78711827     -14.95204533  F       0.04115577       0.14579921       0.12549135
Si      -0.48357197       3.41937020     -13.01775745  F      -0.10890407      -0.46060138      -0.18913717
Si       1.45071591       2.05162212     -16.88633321  F      -0.11523819       0.00347835      -0.15921975
Si       1.45071591       0.68387404     -14.95204533  F      -0.08645682      -0.00720336       0.07134579
Si       3.38500379       4.78711827     -14.95204533  F       0.19082405       0.17902159       0.22623838
Si       3.38500379       3.41937020     -13.01775745  F       0.03159084       0.05359240      -0.03971780
Si       5.31929168       7.52261443     -13.01775745  F       0.04986359      -0.32750783      -0.58223315
Si       3.48453403       7.10655068     -11.55343318  T      -0.00037473      -0.00009352      -0.00014697
Si      -2.51738728      -7.10655448     -11.55343463  T       0.00037185       0.00008531      -0.00014917
Si      -1.94549135      -7.94933249      -9.19587299  T      -0.00014027       0.00064434       0.00046850
Si      -2.41785985       7.52261443     -13.01775745  F       0.17470295      -0.16438161       0.08868966
Si      -2.44231049       6.16447863     -10.95722772  T       0.00020423      -0.00054384       0.00041005
Si      -0.11074725      -5.98120309     -11.09575411  T      -0.00002708       0.00035844      -0.00051017
Si       0.18245717      -6.95284626      -8.93010870  T      -0.00054104      -0.00059942      -0.00005982
Si       1.45071591       7.52261443     -13.01775745  F       0.10847190      -0.41403871       0.74618448
Si       1.07790346       5.98119779     -11.09575219  T       0.00003601      -0.00036033      -0.00050929
Si       3.40946778      -6.16448139     -10.95723129  T      -0.00020209       0.00054462       0.00040990
Si       2.57128544      -7.24507703      -8.88236061  T      -0.00056623      -0.00003588       0.00020223
Si       5.31929168      -3.41937020     -13.01775745  F      -0.13355500      -0.12909021       0.20931700
Si       5.27512692      -4.71677877     -10.89198353  T       0.00005751      -0.00012028      -0.00011013
Si      -4.28714921      -0.81063584     -10.91594238  T       0.00017791      -0.00028214      -0.00006039
Si      -4.23912189      -2.11313640      -8.90450989  T      -0.00025729       0.00039047       0.00018591
Si      -2.41785985      -3.41937020     -13.01775745  F      -0.03158184      -0.05360696      -0.03971408
Si      -2.15536274      -4.80805201     -11.00660838  T       0.00042289       0.00056898       0.00021808
Si      -0.48414699      -0.68237542     -10.94017352  T       0.00046736      -0.00034336      -0.00024823
Si      -0.48527011      -2.00070063      -8.89690685  T       0.00005870       0.00026443       0.00000095
Si       1.45071591      -3.41937020     -13.01775745  F       0.10891039       0.46059603      -0.18914615
Si       1.69855173      -4.57364001     -10.91303847  T      -0.00009672       0.00018820      -0.00025865
Si       3.41803555      -0.66185626     -10.94971071  T       0.00030383       0.00055085      -0.00029583
Si       3.48232809      -1.91344091      -8.86829991  T       0.00088046      -0.00012724       0.00008715
Si       5.31929168       2.05162212     -13.01775745  F      -0.14182048       0.00516399       0.02992560
Si       5.25430889       0.81062701     -10.91594873  T      -0.00019099       0.00025966      -0.00006793
Si      -4.30796366       4.71676844     -10.89197553  T      -0.00005907       0.00011766      -0.00010809
Si      -4.24067206       3.52426665      -8.80723903  T       0.00064136      -0.00018620       0.00003797
Si      -2.41785985       2.05162212     -13.01775745  F      -0.15110996      -0.07989515       0.01847719
Si      -2.45087986       0.66184934     -10.94970980  T      -0.00029034      -0.00053417      -0.00029532
Si      -0.73139559       4.57363439     -10.91303329  T       0.00009354      -0.00018948      -0.00025929
Si      -0.56669308       3.22065803      -8.88759068  T       0.00016042      -0.00047856       0.00002672
Si       1.45071591       2.05162212     -13.01775745  F      -0.07162950      -0.06246194       0.13993886
Si       1.45130305       0.68236881     -10.94017514  T      -0.00046843       0.00034251      -0.00025123
Si       3.12251897       4.80804522     -11.00660501  T      -0.00042983      -0.00054683       0.00021485
Si       3.31239229       3.51477028      -8.93155641  T       0.00054411      -0.00002102      -0.00011235
Si       2.91265321       7.94931857      -9.19586629  T       0.00013601      -0.00064305       0.00046821
Si       3.64750888       7.07484426      -6.91187364  T       0.00078541      -0.00004334       0.00003112
Si      -2.68033570      -7.07486302      -6.91187509  T      -0.00079961      -0.00002579       0.00003298
Si      -1.97581739      -7.98725388      -4.68600214  T      -0.00035420       0.00011647      -0.00049324
Si      -1.60411975       7.24505572      -8.88234724  T       0.00056646       0.00003722       0.00020029
Si      -2.18085908       6.12704256      -6.78049917  T      -0.00023146       0.00050680      -0.00015578
Si      -0.28727047      -5.84403850      -6.84248445  T      -0.00013127       0.00032600       0.00029523
Si       0.08789385      -6.86257766      -4.70659916  T       0.00010582       0.00065677      -0.00006943
Si       0.78470768       6.95282732      -8.93009885  T       0.00053874       0.00061034      -0.00007081
Si       1.25444430       5.84401619      -6.84248012  T       0.00021445      -0.00035465       0.00029562
Si       3.14803469      -6.12707093      -6.78051181  T       0.00023084      -0.00050587      -0.00015676
Si       2.43315743      -7.26994191      -4.71401787  T      -0.00043432      -0.00027301      -0.00043216
Si       5.20784224      -3.52428263      -8.80724607  T      -0.00064899       0.00019693       0.00003930
Si       5.11911791      -4.82148775      -6.76549196  T       0.00026415      -0.00033226      -0.00025607
Si      -4.29102902      -0.89879599      -6.82958254  T       0.00014164      -0.00032964      -0.00013097
Si      -4.28274773      -2.10810332      -4.75049780  T      -0.00033425      -0.00006980       0.00001321
Si      -2.34522609      -3.51478267      -8.93155588  T      -0.00051479      -0.00003936      -0.00008415
Si      -2.34389224      -4.72756355      -6.84577116  T      -0.00047307       0.00043705       0.00030794
Si      -0.49221729      -0.67707818      -6.82939546  T      -0.00022149       0.00006198      -0.00011955
Si      -0.50613715      -1.95077403      -4.74515102  T      -0.00035360       0.00027545       0.00001583
Si       1.53386044      -3.22067337      -8.88759375  T      -0.00015510       0.00048503       0.00002470
Si       1.55436997      -4.42050652      -6.79360416  T      -0.00027561       0.00012161      -0.00035051
Si       3.45854686      -0.60692662      -6.81853692  T      -0.00040368       0.00000510      -0.00038766
Si       3.50438405      -1.88195677      -4.74183563  T       0.00064295       0.00039253       0.00017695
Si       5.20629131       2.11311920      -8.90451433  T       0.00022549      -0.00034417       0.00018437
Si       5.25820973       0.89877569      -6.82959127  T      -0.00017977       0.00026562      -0.00013828
Si      -4.15194248       4.82146031      -6.76547772  T      -0.00026624       0.00033156      -0.00025686
Si      -4.17952720       3.58218033      -4.69557346  T       0.00033214      -0.00041895      -0.00042192
Si      -2.51515957       1.91342525      -8.86829364  T      -0.00088203       0.00010437       0.00009341
Si      -2.49136884       0.60689973      -6.81853272  T       0.00044652       0.00004582      -0.00039120
Si      -0.58719018       4.42048190      -6.79359621  T       0.00025502      -0.00013265      -0.00035351
Si      -0.55697684       3.13172260      -4.73945629  T       0.00021493      -0.00003581      -0.00003195
Si       1.45243789       2.00068514      -8.89690563  T      -0.00005792      -0.00025737       0.00000288
Si       1.45939765       0.67705418      -6.82939700  T       0.00021710      -0.00006242      -0.00012455
Si       3.31107278       4.72753391      -6.84577070  T       0.00042674      -0.00028968       0.00031901
Si       3.33974979       3.46716922      -4.75863383  T       0.00085282      -0.00003249      -0.00041793
Si       2.94299988       7.98722670      -4.68599653  T       0.00033983      -0.00011774      -0.00048797
Si       3.94859390       6.99569887      -2.65779762  T      -0.00010006      -0.00021484       0.00052372
Si      -2.98140379      -6.99572648      -2.65779768  T       0.00007138       0.00011882       0.00052711
Si      -2.07766052      -7.89699332      -0.55385815  T      -0.00014551       0.00014984      -0.00049924
Si      -1.46597517       7.26990790      -4.71400463  T       0.00043723       0.00027834      -0.00043919
Si      -2.11431194       6.13942938      -2.63361976  T       0.00005335      -0.00013376      -0.00001830
Si      -0.27350254      -5.69727650      -2.64788047  T      -0.00030224       0.00009911       0.00014894
Si       0.01223251      -6.81881625      -0.55817492  T       0.00010961       0.00023245      -0.00006002
Si       0.87928994       6.86254582      -4.70659082  T      -0.00011440      -0.00062253      -0.00008099
Si       1.24068381       5.69724271      -2.64787796  T       0.00060111      -0.00013280       0.00014851
Si       3.08150254      -6.13947349      -2.63362706  T      -0.00006147       0.00012701      -0.00002067
Si       2.35163281      -7.26824776      -0.56686284  T       0.00008201       0.00039443       0.00011901
Si       5.14671233      -3.58221790      -4.69558222  T      -0.00034103       0.00043316      -0.00042156
Si       5.05614897      -4.84018867      -2.62940191  T       0.00021842      -0.00034527       0.00018228
Si      -4.32273399      -0.87489558      -2.67987608  T       0.00003948      -0.00007278       0.00023937
Si      -4.32064890      -2.06900934      -0.58835594  T       0.00005857       0.00007478      -0.00081464
Si      -2.37256442      -3.46719271      -4.75863342  T      -0.00077133      -0.00010173      -0.00038840
Si      -2.36694265      -4.70653905      -2.66904699  T      -0.00032560       0.00045078       0.00020304
Si      -0.50617708      -0.65712592      -2.66809747  T      -0.00051709      -0.00000310       0.00009733
Si      -0.52133860      -1.93225567      -0.58409259  T      -0.00022535       0.00048379       0.00024683
Si       1.52416564      -3.13175652      -4.73945937  T      -0.00019028       0.00005810      -0.00004388
Si       1.58408578      -4.34349844      -2.64969887  T       0.00005973      -0.00009293       0.00034426
Si       3.47939528      -0.61549246      -2.66495607  T       0.00020981      -0.00007949       0.00057518
Si       3.51116970      -1.88038254      -0.57848387  T      -0.00083638       0.00013350       0.00007692
Si       5.24993977       2.10806775      -4.75050221  T       0.00025256       0.00016982       0.00001049
Si       5.28993115       0.87486590      -2.67988106  T      -0.00010182      -0.00002983       0.00023422
Si      -4.08896288       4.84015003      -2.62939379  T      -0.00021816       0.00034918       0.00018054
Si      -4.15349066       3.61146720      -0.55137471  T       0.00048918      -0.00005232       0.00003501
Si      -2.53719364       1.88192663      -4.74182948  T      -0.00065981      -0.00043419       0.00018600
Si      -2.51220140       0.61545067      -2.66495310  T      -0.00013655       0.00015715       0.00057251
Si      -0.61688306       4.34346425      -2.64969413  T      -0.00017959       0.00000666       0.00034043
Si      -0.55036555       3.10322781      -0.57615496  T       0.00030951       0.00043090       0.00009921
Si       1.47332785       1.95074205      -4.74515030  T       0.00034888      -0.00026292       0.00001894
Si       1.47337563       0.65708907      -2.66809840  T       0.00050862       0.00000386       0.00009318
Si       3.33414509       4.70649275      -2.66904719  T       0.00017779      -0.00018668       0.00021515
Si       3.37723671       3.42534390      -0.59366372  T       0.00037374      -0.00048646      -0.00045554
Si       3.04485297       7.89696107      -0.55385765  T       0.00012373      -0.00015467      -0.00049716
Si       4.03004766       6.93698848       1.49546376  T       0.00029119       0.00017042      -0.00061929
Si      -3.06285406      -6.93701707       1.49546447  T      -0.00032762      -0.00028341      -0.00061954
Si      -2.15957365      -7.84169515       3.60299421  T      -0.00005667      -0.00003242      -0.00030971
Si      -1.38444154       7.26820700      -0.56686044  T      -0.00007919      -0.00038599       0.00011617
Si      -2.05974939       6.15365430       1.51417053  T       0.00012659      -0.00054310      -0.00059621
Si      -0.31609772      -5.66422224       1.51087348  T       0.00012113       0.00029372      -0.00039813
Si      -0.04802562      -6.80245263       3.59525792  T       0.00011413       0.00016436      -0.00050285
Si       0.95496122       6.81877812      -0.55817328  T      -0.00012257      -0.00018251      -0.00006458
Si       1.28327963       5.66418699       1.51087230  T       0.00024646      -0.00033477      -0.00039735
Si       3.02694334      -6.15370132       1.51417414  T      -0.00013671       0.00053473      -0.00059802
Si       2.28709018      -7.27696806       3.57962277  T      -0.00054449      -0.00006816      -0.00062659
Si       5.12068421      -3.61151417      -0.55137676  T      -0.00049858       0.00006662       0.00003515
Si       5.01134127      -4.86842773       1.51464192  T      -0.00014846      -0.00004543      -0.00002829
Si      -4.34188548      -0.84106776       1.48909297  T       0.00014727       0.00056009       0.00035944
Si      -4.34238071      -2.02717384       3.58628488  T       0.00007377       0.00024923      -0.00042994
Si      -2.41004205      -3.42537213      -0.59366406  T      -0.00025101       0.00029781      -0.00043680
Si      -2.40354526      -4.66266993       1.49759332  T      -0.00047256       0.00074996       0.00000205
Si      -0.51205127      -0.64856994       1.49852919  T       0.00007269       0.00022846      -0.00026971
Si      -0.53353138      -1.92104112       3.58351603  T      -0.00045442       0.00019417       0.00015832
Si       1.51756508      -3.10327157      -0.57615559  T      -0.00026353      -0.00039135       0.00009602
Si       1.55853399      -4.33365455       1.50575101  T      -0.00057051       0.00009282      -0.00006726
Si       3.48301224      -0.62750967       1.50501492  T       0.00039388      -0.00064341       0.00020023
Si       3.49777071      -1.89851299       3.58759211  T      -0.00059807       0.00016572      -0.00009786
Si       5.28785262       2.06896329      -0.58835698  T      -0.00017472       0.00006395      -0.00081484
Si       5.30908657       0.84103655       1.48909521  T      -0.00022244      -0.00068022       0.00035726
Si      -4.04415283       4.86838735       1.51463837  T       0.00014896       0.00005161      -0.00002798
Si      -4.12505780       3.64347727       3.59493835  T       0.00046972      -0.00017358       0.00020171
Si      -2.54396768       1.88034558      -0.57848257  T       0.00080363      -0.00019070       0.00008172
Si      -2.51581531       0.62746429       1.50501384  T      -0.00030492       0.00073362       0.00019811
Si      -0.59132566       4.33361893       1.50574880  T       0.00042079      -0.00019958      -0.00006650
Si      -0.52870315       3.10783727       3.58761954  T       0.00015914       0.00028241      -0.00038518
Si       1.48854157       1.93221522      -0.58409266  T       0.00021227      -0.00046815       0.00024922
Si       1.47925394       0.64853033       1.49852950  T      -0.00008273      -0.00022704      -0.00027091
Si       3.37075271       4.66261912       1.49759229  T       0.00029415      -0.00043288       0.00001217
Si       3.40510895       3.38989509       3.57673701  T       0.00058262      -0.00023730      -0.00034632
Si       3.12676294       7.84166538       3.60299012  T       0.00003466       0.00002724      -0.00031165
Si       4.11295215       6.88593270       5.66100813  T       0.00005343      -0.00038696       0.00008541
Si      -3.14576731      -6.88595521       5.66100947  T      -0.00008582       0.00028802       0.00008483
Si      -2.28292029      -7.75790595       7.79211405  T       0.00021810      -0.00033799      -0.00050725
Si      -1.31990220       7.27693032       3.57961304  T       0.00054822       0.00007544      -0.00062520
Si      -2.01473090       6.17893045       5.66262913  T      -0.00029418      -0.00000972       0.00013071
Si      -0.36093588      -5.66156954       5.67674492  T      -0.00029113      -0.00013074      -0.00034854
Si      -0.10848333      -6.82489698       7.75188559  T      -0.00015680      -0.00007911      -0.00015404
Si       1.01521598       6.80241709       3.59525265  T      -0.00012650      -0.00011682      -0.00049816
Si       1.32810946       5.66154113       5.67674133  T       0.00059277       0.00009150      -0.00035153
Si       2.98191514      -6.17896714       5.66264128  T       0.00028789       0.00000155       0.00013116
Si       2.24195745      -7.29818144       7.72542394  T      -0.00005803      -0.00033088       0.00030590
Si       5.09224838      -3.64352005       3.59494495  T      -0.00047920       0.00018815       0.00020135
Si       4.97128035      -4.89640052       5.65911590  T      -0.00007964      -0.00000762      -0.00022754
Si      -4.34027759      -0.80056738       5.66529223  T      -0.00012401      -0.00013541      -0.00026194
Si      -4.33540448      -1.99362977       7.75705085  T      -0.00009020       0.00026893      -0.00013755
Si      -2.43791849      -3.38992004       3.57673618  T      -0.00045611       0.00004305      -0.00034510
Si      -2.43472995      -4.63067888       5.66611623  T      -0.00009040       0.00065620      -0.00030203
Si      -0.51256234      -0.64268450       5.66719295  T      -0.00015315       0.00062063      -0.00006780
Si      -0.52942233      -1.91437835       7.75211246  T      -0.00016594       0.00048315      -0.00044339
Si       1.49589827      -3.10787760       3.58762262  T      -0.00011136      -0.00024445      -0.00038090
Si       1.52780671      -4.34885699       5.66602888  T      -0.00044146       0.00007984      -0.00010631
Si       3.46942174      -0.65257678       5.67690901  T       0.00008252       0.00002683      -0.00023778
Si       3.46964662      -1.93157802       7.75474716  T      -0.00037770       0.00019195      -0.00045148
Si       5.30958080       2.02713122       3.58628794  T      -0.00019202      -0.00010767      -0.00042635
Si       5.30746844       0.80054307       5.66530006  T       0.00005614       0.00002894      -0.00026062
Si      -4.00409944       4.89636787       5.65910314  T       0.00007920       0.00001048      -0.00022583
Si      -4.13289845       3.64174289       7.71825369  T      -0.00003497      -0.00036856      -0.00029321
Si      -2.53057282       1.89847910       3.58758699  T       0.00056516      -0.00022351      -0.00009818
Si      -2.50223582       0.65254132       5.67690448  T      -0.00000216       0.00005189      -0.00023809
Si      -0.56061184       4.34882822       5.66602123  T       0.00031840      -0.00016135      -0.00010226
Si      -0.50107683       3.14762584       7.76264983  T       0.00020668       0.00052310       0.00024168
Si       1.50073012       1.92100395       3.58351514  T       0.00044041      -0.00017884       0.00015922
Si       1.47975300       0.64265373       5.66719439  T       0.00014511      -0.00062011      -0.00006704
Si       3.40192470       4.63063758       5.66611445  T      -0.00005210      -0.00038227      -0.00029281
Si       3.40227391       3.36208374       7.74591702  T       0.00049415       0.00004112      -0.00002171
Si       3.25009572       7.75788461       7.79210650  T      -0.00023316       0.00033707      -0.00051071
Si       4.44373425       6.71593293       9.70149242  T      -0.00048109       0.00007966      -0.00018451
Si      -3.47656256      -6.71594446       9.70149625  T       0.00044446      -0.00015089      -0.00019281
Si      -2.83157718      -7.12472672      12.03255871  T       0.00009543       0.00016791       0.00052309
Si      -1.27478220       7.29815346       7.72540840  T       0.00005968       0.00033809       0.00030888
Si      -2.08153731       6.17105878       9.75465270  T      -0.00063877       0.00029312      -0.00026027
Si      -0.38915665      -5.76993779       9.87309453  T      -0.00020577       0.00004251      -0.00013352
Si      -0.16422238      -7.19716077      11.80559548  T      -0.00000539       0.00003104       0.00002257
Si       1.07565956       6.82487160       7.75187641  T       0.00015084       0.00010847      -0.00014123
Si       1.35631738       5.76992199       9.87309030  T       0.00035033      -0.00006704      -0.00013610
Si       3.04870349      -6.17107543       9.75466471  T       0.00064837      -0.00030227      -0.00025988
Si       2.30989830      -7.05275170      11.88178574  T      -0.00002418      -0.00026045      -0.00016758
Si       5.10007527      -3.64177045       7.71826398  T       0.00002926       0.00038243      -0.00029424
Si       5.03516150      -4.88935695       9.78210943  T       0.00020585      -0.00060215      -0.00007000
Si      -4.30587275      -0.76647952       9.83067719  T      -0.00029715      -0.00051437       0.00011016
Si      -4.31612581      -1.98399504      11.89966363  T       0.00011960      -0.00003592      -0.00001044
Si      -2.43509883      -3.36209960       7.74591606  T      -0.00040223      -0.00018786      -0.00002893
Si      -2.42267533      -4.64214888       9.81337924  T       0.00023017      -0.00035707      -0.00027879
Si      -0.50326364      -0.65414977       9.84154774  T      -0.00010190       0.00006328      -0.00022990
Si      -0.51044361      -1.99460921      11.89183519  T      -0.00015654       0.00001197      -0.00019580
Si       1.46825481      -3.14765114       7.76265377  T      -0.00017433      -0.00049995       0.00025238
Si       1.49525798      -4.44614923       9.81814692  T       0.00019778       0.00043738       0.00004863
Si       3.43241992      -0.68856448       9.84650156  T       0.00037595       0.00000924      -0.00013054
Si       3.42121489      -2.01179207      11.90005590  T      -0.00029062      -0.00054859       0.00048822
Si       5.30258746       1.99360228       7.75705549  T       0.00000411      -0.00016266      -0.00013018
Si       5.27304243       0.76646803       9.83068567  T       0.00025725       0.00044884       0.00011296
Si      -4.06799353       4.88933838       9.78209616  T      -0.00020907       0.00059956      -0.00006922
Si      -4.20514111       3.59883509      11.82704732  T      -0.00064633      -0.00004173      -0.00065480
Si      -2.50246610       1.93155590       7.75473918  T       0.00035480      -0.00023418      -0.00045517
Si      -2.46525464       0.68854830       9.84649803  T      -0.00032841       0.00003779      -0.00013157
Si      -0.52808802       4.44613422       9.81813959  T      -0.00026701      -0.00046638       0.00005336
Si      -0.47863683       3.31197836      11.94562894  T       0.00035587       0.00047746       0.00026757
Si       1.49660253       1.91435452       7.75211104  T       0.00015695      -0.00047011      -0.00044379
Si       1.47043132       0.65413551       9.84154902  T       0.00009755      -0.00006391      -0.00022720
Si       3.38984579       4.64212674       9.81337604  T      -0.00027501       0.00052942      -0.00027403
Si       3.40662647       3.40718449      11.91759004  T      -0.00006756      -0.00015216      -0.00006712
Si       3.79873061       7.12472232      12.03254701  T      -0.00009650      -0.00016862       0.00051829
Si       5.31929168       6.15486635      13.98490139  F      -0.72851417       0.37688554      -0.14040492
Si      -4.35214774      -6.15486635      13.98490139  F       0.72850989      -0.37688849      -0.14040041
Si      -4.35214774      -7.52261443      15.91918927  F       0.23025116       0.74730902       0.10092443
Si      -1.34273414       7.05272834      11.88177886  T       0.00001847       0.00026105      -0.00016254
Si      -2.41785985       6.15486635      13.98490139  F       0.29347556       0.02073505       0.15252708
Si      -0.48357197      -6.15486635      13.98490139  F       0.05459040       0.32444815       0.21570307
Si      -0.48357197      -7.52261443      15.91918927  F      -0.03133908       0.05881139       0.03052101
Si       1.13139202       7.19715064      11.80558676  T       0.00000503      -0.00002208       0.00003397
Si       1.45071591       6.15486635      13.98490139  F      -0.05458922      -0.32446481       0.21570458
Si       3.38500379      -6.15486635      13.98490139  F      -0.29347247      -0.02072934       0.15253884
Si       3.38500379      -7.52261443      15.91918927  F      -0.20296390       0.17117803       0.01765652
Si       5.17230015      -3.59883764      11.82705001  T       0.00064350       0.00004668      -0.00065539
Si       5.31929168      -4.78711827      13.98490139  F      -0.25982264       0.02586263      -0.32349313
Si      -4.35214774      -0.68387404      13.98490139  F       0.16444718      -0.10628032      -0.04311531
Si      -4.35214774      -2.05162212      15.91918927  F       0.10867585       0.17233126      -0.06480457
Si      -2.43947313      -3.40718676      11.91758970  T       0.00009823       0.00009787      -0.00008850
Si      -2.41785985      -4.78711827      13.98490139  F      -0.23019113      -0.03901040      -0.15834687
Si      -0.48357197      -0.68387404      13.98490139  F       0.05818313       0.07738391      -0.13062321
Si      -0.48357197      -2.05162212      15.91918927  F       0.06065904      -0.03708458      -0.06388437
Si       1.44579151      -3.31198452      11.94563000  T      -0.00034622      -0.00047020       0.00027344
Si       1.45071591      -4.78711827      13.98490139  F       0.00850966       0.08444676      -0.19972258
Si       3.38500379      -0.68387404      13.98490139  F       0.22731104       0.06342489      -0.04036177
Si       3.38500379      -2.05162212      15.91918927  F       0.10862247      -0.07674146      -0.07352639
Si       5.28328287       1.98398993      11.89966477  T      -0.00014823       0.00007781       0.00000050
Si       5.31929168       0.68387404      13.98490139  F      -0.16444001       0.10626141      -0.04309297
Si      -4.35214774       4.78711827      13.98490139  F       0.25983680      -0.02587901      -0.32351697
Si      -4.35214774       3.41937020      15.91918927  F       0.11400157       0.10088993      -0.06554612
Si      -2.45405937       2.01178599      11.90005207  T       0.00028507       0.00053252       0.00048031
Si      -2.41785985       0.68387404      13.98490139  F      -0.22730089      -0.06343010      -0.04036626
Si      -0.48357197       4.78711827      13.98490139  F      -0.00849990      -0.08445617      -0.19974158
Si      -0.48357197       3.41937020      15.91918927  F       0.07361090      -0.12393125       0.01326154
Si       1.47759919       1.99460302      11.89183341  T       0.00015455      -0.00000662      -0.00019485
Si       1.45071591       0.68387404      13.98490139  F      -0.05817304      -0.07739458      -0.13061873
Si       3.38500379       4.78711827      13.98490139  F       0.23019814       0.03901352      -0.15834197
Si       3.38500379       3.41937020      15.91918927  F       0.12545925      -0.14050333       0.02908082
Si       5.31929168       7.52261443      15.91918927  F      -0.23025158      -0.74730690       0.10092300
Si       5.31929168       6.15486635      17.85347716  F      -0.38223381       0.71031081       0.22622293
Si      -4.35214774      -6.15486635      17.85347716  F       0.38223360      -0.71031111       0.22622293
Si      -4.35214774      -7.52261443      19.78776504  F       0.54228213       0.74227923      -1.09047670
Si      -2.41785985       7.52261443      15.91918927  F       0.20296703      -0.17118132       0.01765281
Si      -2.41785985       6.15486635      17.85347716  F      -0.02499982       0.23586608       0.16083364
Si      -0.48357197      -6.15486635      17.85347716  F       0.05124189      -0.27367212       0.08134597
Si      -0.48357197      -7.52261443      19.78776504  F       0.01695057       0.54832401      -0.75759335
Si       1.45071591       7.52261443      15.91918927  F       0.03133918      -0.05881013       0.03052042
Si       1.45071591       6.15486635      17.85347716  F      -0.05124210       0.27367186       0.08134454
Si       3.38500379      -6.15486635      17.85347716  F       0.02500015      -0.23586576       0.16083339
Si       3.38500379      -7.52261443      19.78776504  F      -0.39635039       0.57380814      -0.86135193
Si       5.31929168      -3.41937020      15.91918927  F      -0.11400097      -0.10089043      -0.06554696
Si       5.31929168      -4.78711827      17.85347716  F      -0.22182867       0.27674980       0.22140922
Si      -4.35214774      -0.68387404      17.85347716  F       0.17422214      -0.33402667       0.18837874
Si      -4.35214774      -2.05162212      19.78776504  F       0.81476054      -0.00941535      -0.80256530
Si      -2.41785985      -3.41937020      15.91918927  F      -0.12545831       0.14050196       0.02908244
Si      -2.41785985      -4.78711827      17.85347716  F      -0.11878769      -0.07223983       0.16586629
Si      -0.48357197      -0.68387404      17.85347716  F       0.11235547      -0.04642596       0.13077079
Si      -0.48357197      -2.05162212      19.78776504  F       0.08874334      -0.23285946      -0.13541725
Si       1.45071591      -3.41937020      15.91918927  F      -0.07361130       0.12393146       0.01325799
Si       1.45071591      -4.78711827      17.85347716  F      -0.12755529       0.00765902       0.22701044
Si       3.38500379      -0.68387404      17.85347716  F       0.07819919      -0.00624496       0.08914378
Si       3.38500379      -2.05162212      19.78776504  F       0.18261164      -0.32514971      -0.17585567
Si       5.31929168       2.05162212      15.91918927  F      -0.10867489      -0.17232923      -0.06480564
Si       5.31929168       0.68387404      17.85347716  F      -0.17422230       0.33402617       0.18837920
Si      -4.35214774       4.78711827      17.85347716  F       0.22182924      -0.27675007       0.22140878
Si      -4.35214774       3.41937020      19.78776504  F       0.77717840      -0.02698763      -0.78479643
Si      -2.41785985       2.05162212      15.91918927  F      -0.10862180       0.07674234      -0.07352769
Si      -2.41785985       0.68387404      17.85347716  F      -0.07819957       0.00624516       0.08914323
Si      -0.48357197       4.78711827      17.85347716  F       0.12755486      -0.00765929       0.22701104
Si      -0.48357197       3.41937020      19.78776504  F       0.08826798      -0.21921355      -0.10428204
Si       1.45071591       2.05162212      15.91918927  F      -0.06065933       0.03708611      -0.06388512
Si       1.45071591       0.68387404      17.85347716  F      -0.11235573       0.04642579       0.13077100
Si       3.38500379       4.78711827      17.85347716  F       0.11878712       0.07224058       0.16586661
Si       3.38500379       3.41937020      19.78776504  F       0.23020116      -0.30043656      -0.15135677
