360
Lattice="11.605727294873521 0.0 0.0 0.0 16.412976941613742 0.0 0.0 0.0 38.6857576495784" Properties=species:S:1:pos:R:3:move_mask:L:1:forces:R:3 energy=-1739.8078035230321 free_energy=-1739.8078035230321 pbc="F F F"
Si       5.31929168       7.52261443      19.78776504  F      -0.54184056      -0.74251854      -1.09392998
Si       5.31929168       6.15486635     -18.82062110  F      -0.85639003       0.15963816       1.05499440
Si      -4.35214774      -6.15486635     -18.82062110  F       0.85639004      -0.15963819       1.05499443
Si      -4.35214774      -7.52261443     -16.88633321  F       0.06917387       0.94740012      -0.22266852
Si      -2.41785985       7.52261443      19.78776504  F       0.39573057      -0.57544705      -0.86165312
Si      -2.41785985       6.15486635     -18.82062110  F      -0.11508815      -0.24143533       0.66471587
Si      -0.48357197      -6.15486635     -18.82062110  F       0.05461788       0.07977191       0.64007008
Si      -0.48357197      -7.52261443     -16.88633321  F      -0.00101298       0.36771639      -0.25090799
Si       1.45071591       7.52261443      19.78776504  F      -0.01769097      -0.54943641      -0.75920988
Si       1.45071591       6.15486635     -18.82062110  F      -0.05461787      -0.07977190       0.64007005
Si       3.38500379      -6.15486635     -18.82062110  F       0.11508813       0.24143535       0.66471584
Si       3.38500379      -7.52261443     -16.88633321  F      -0.10926700       0.43390938      -0.17416783
Si       5.31929168      -3.41937020      19.78776504  F      -0.77761362       0.02593721      -0.78664778
Si       5.31929168      -4.78711827     -18.82062110  F      -0.80221542       0.03025289       0.77580829
Si      -4.35214774      -0.68387404     -18.82062110  F       0.80646536       0.00428798       0.80423719
Si      -4.35214774      -2.05162212     -16.88633321  F       0.17995416       0.30871116      -0.18237393
Si      -2.41785985      -3.41937020      19.78776504  F      -0.23008714       0.29877830      -0.15218720
Si      -2.41785985      -4.78711827     -18.82062110  F      -0.23057182      -0.26322257       0.16749530
Si      -0.48357197      -0.68387404     -18.82062110  F       0.08824413       0.22146546       0.11638910
Si      -0.48357197      -2.05162212     -16.88633321  F       0.11458199      -0.00457875      -0.15610965
Si       1.45071591      -3.41937020      19.78776504  F      -0.08848542       0.21772772      -0.10453484
Si       1.45071591      -4.78711827     -18.82062110  F      -0.08727522      -0.07375050       0.07450032
Si       3.38500379      -0.68387404     -18.82062110  F       0.19609387       0.34314067       0.16477028
Si       3.38500379      -2.05162212     -16.88633321  F       0.06527526      -0.05180848      -0.11677298
Si       5.31929168       2.05162212      19.78776504  F      -0.81550859       0.00890120      -0.80454343
Si       5.31929168       0.68387404     -18.82062110  F      -0.80646532      -0.00428798       0.80423715
Si      -4.35214774       4.78711827     -18.82062110  F       0.80221550      -0.03025290       0.77580838
Si      -4.35214774       3.41937020     -16.88633321  F       0.15689557       0.29285061      -0.18648432
Si      -2.41785985       2.05162212      19.78776504  F      -0.18274245       0.32396503      -0.17712218
Si      -2.41785985       0.68387404     -18.82062110  F      -0.19609389      -0.34314064       0.16477031
Si      -0.48357197       4.78711827     -18.82062110  F       0.08727523       0.07375052       0.07450040
Si      -0.48357197       3.41937020     -16.88633321  F       0.11363435       0.01093268      -0.14056857
Si       1.45071591       2.05162212      19.78776504  F      -0.08852531       0.23175969      -0.13679287
Si       1.45071591       0.68387404     -18.82062110  F      -0.08824411      -0.22146545       0.11638909
Si       3.38500379       4.78711827     -18.82062110  F       0.23057182       0.26322259       0.16749534
Si       3.38500379       3.41937020     -16.88633321  F       0.11053849       0.01972923      -0.10813506
Si       5.31929168       7.52261443     -16.88633321  F      -0.06917388      -0.94740001      -0.22266865
Si       5.31929168       6.15486635     -14.95204533  F      -0.46204990       0.44027801       0.07942694
Si      -4.35214774      -6.15486635     -14.95204533  F       0.46205005      -0.44027821       0.07942722
Si      -4.35214774      -7.52261443     -13.01775745  F       0.01433543       0.35958986      -0.54830161
Si      -2.41785985       7.52261443     -16.88633321  F       0.10926684      -0.43390934      -0.17416769
Si      -2.41785985       6.15486635     -14.95204533  F      -0.02993382      -0.12406729       0.08762207
Si      -0.48357197      -6.15486635     -14.95204533  F      -0.13614393       0.01885804      -0.02606863
Si      -0.48357197      -7.52261443     -13.01775745  F      -0.12711778       0.46740573       0.82954506
Si       1.45071591       7.52261443     -16.88633321  F       0.00101286      -0.36771652      -0.25090788
Si       1.45071591       6.15486635     -14.95204533  F       0.13614391      -0.01885823      -0.02606851
Si       3.38500379      -6.15486635     -14.95204533  F       0.02993456       0.12406697       0.08762196
Si       3.38500379      -7.52261443     -13.01775745  F      -0.18146967       0.21920003       0.17845272
Si       5.31929168      -3.41937020     -16.88633321  F      -0.15689559      -0.29285074      -0.18648458
Si       5.31929168      -4.78711827     -14.95204533  F      -0.15599277       0.12947231       0.08906098
Si      -4.35214774      -0.68387404     -14.95204533  F       0.13269411      -0.16724595       0.08692456
Si      -4.35214774      -2.05162212     -13.01775745  F       0.16629341       0.01749536       0.12454056
Si      -2.41785985      -3.41937020     -16.88633321  F      -0.11053870      -0.01972920      -0.10813510
Si      -2.41785985      -4.78711827     -14.95204533  F      -0.18689737      -0.18823225       0.23601479
Si      -0.48357197      -0.68387404     -14.95204533  F       0.08599514       0.01441781       0.07821590
Si      -0.48357197      -2.05162212     -13.01775745  F       0.07939524       0.09299350       0.22233700
Si       1.45071591      -3.41937020     -16.88633321  F      -0.11363459      -0.01093263      -0.14056874
Si       1.45071591      -4.78711827     -14.95204533  F      -0.04195168      -0.15137765       0.13201654
Si       3.38500379      -0.68387404     -14.95204533  F       0.12866461       0.09471107       0.09401756
Si       3.38500379      -2.05162212     -13.01775745  F       0.14691071       0.10145855       0.08738474
Si       5.31929168       2.05162212     -16.88633321  F      -0.17995417      -0.30871129      -0.18237411
Si       5.31929168       0.68387404     -14.95204533  F      -0.13269332       0.16724657       0.08692411
Si      -4.35214774       4.78711827     -14.95204533  F       0.15599399      -0.12947186       0.08906106
Si      -4.35214774       3.41937020     -13.01775745  F       0.15548422       0.12755798       0.29284078
Si      -2.41785985       2.05162212     -16.88633321  F      -0.06527541       0.05180860      -0.11677290
Si      -2.41785985       0.68387404     -14.95204533  F      -0.12866408      -0.09471090       0.09401781
Si      -0.48357197       4.78711827     -14.95204533  F       0.04195203       0.15137788       0.13201676
Si      -0.48357197       3.41937020     -13.01775745  F      -0.10080123      -0.43706723      -0.09875285
Si       1.45071591       2.05162212     -16.88633321  F      -0.11458220       0.00457883      -0.15610966
Si       1.45071591       0.68387404     -14.95204533  F      -0.08599509      -0.01441761       0.07821565
Si       3.38500379       4.78711827     -14.95204533  F       0.18689770       0.18823265       0.23601477
Si       3.38500379       3.41937020     -13.01775745  F       0.03965277       0.05103446       0.02744471
Si       5.31929168       7.52261443     -13.01775745  F      -0.01433248      -0.35958949      -0.54830388
Si       3.48310823       7.08642201     -11.64449655  T      -0.00042520      -0.00000689      -0.00022048
Si      -2.51596315      -7.08642293     -11.64449694  T       0.00042480       0.00000585      -0.00022088
Si      -1.95543882      -7.85270795      -9.28824313  T      -0.00064815      -0.00051678       0.00017193
Si      -2.41785985       7.52261443     -13.01775745  F       0.18147101      -0.21920336       0.17845713
Si      -2.42536429       6.16054039     -11.03250210  T       0.00044161       0.00039674       0.00137093
Si      -0.12835201      -5.97926685     -11.16101735  T       0.00016733      -0.00067640       0.00025013
Si       0.17193007      -6.86624008      -8.98361935  T      -0.00025259       0.00091292      -0.00000978
Si       1.45071591       7.52261443     -13.01775745  F       0.12712053      -0.46740824       0.82954888
Si       1.09550029       5.97926541     -11.16101665  T      -0.00016633       0.00067597       0.00025025
Si       3.39251350      -6.16054032     -11.03250341  T      -0.00044164      -0.00039664       0.00137086
Si       2.54778064      -7.15680511      -8.93582276  T      -0.00020094      -0.00070451      -0.00059145
Si       5.31929168      -3.41937020     -13.01775745  F      -0.15548020      -0.12755834       0.29283451
Si       5.23491813      -4.68637345     -10.95208795  T       0.00022545       0.00026523       0.00030552
Si      -4.25945954      -0.82792199     -10.98490679  T       0.00054792       0.00089877      -0.00037866
Si      -4.20227591      -2.08343023      -8.96891666  T      -0.00049363      -0.00017805      -0.00049418
Si      -2.41785985      -3.41937020     -13.01775745  F      -0.03964993      -0.05103806       0.02744635
Si      -2.16507907      -4.78846065     -11.07359796  T      -0.00013443      -0.00028202       0.00035880
Si      -0.48234760      -0.68778020     -11.00701381  T      -0.00013716      -0.00016319      -0.00031595
Si      -0.48598395      -1.98512169      -8.96487879  T      -0.00004151       0.00058958      -0.00050009
Si       1.45071591      -3.41937020     -13.01775745  F       0.10080324       0.43706581      -0.09875496
Si       1.68324474      -4.56099513     -10.98213890  T      -0.00008329      -0.00003462       0.00013000
Si       3.40911703      -0.67087111     -11.01737310  T       0.00001885       0.00036096       0.00040396
Si       3.46332848      -1.89362144      -8.93513503  T       0.00030660      -0.00025586       0.00065642
Si       5.31929168       2.05162212     -13.01775745  F      -0.16629063      -0.01749642       0.12453460
Si       5.22660904       0.82791892     -10.98490912  T      -0.00054949      -0.00090096      -0.00037945
Si      -4.26776647       4.68637057     -10.95208541  T      -0.00022589      -0.00026523       0.00030565
Si      -4.19487680       3.52921157      -8.87063070  T       0.00058166       0.00061974      -0.00017781
Si      -2.41785985       2.05162212     -13.01775745  F      -0.14690852      -0.10146257       0.08738784
Si      -2.44196918       0.67086980     -11.01737232  T      -0.00001741      -0.00035939       0.00040393
Si      -0.71609666       4.56099374     -10.98213758  T       0.00008298       0.00003453       0.00012999
Si      -0.55730892       3.21996513      -8.95058951  T       0.00073703       0.00019508      -0.00110063
Si       1.45071591       2.05162212     -13.01775745  F      -0.07939240      -0.09299633       0.22233696
Si       1.44949533       0.68777862     -11.00701429  T       0.00013701       0.00016315      -0.00031625
Si       3.13222723       4.78845905     -11.07359735  T       0.00013345       0.00028480       0.00035841
Si       3.30141518       3.51368722      -8.99562075  T      -0.00062106       0.00004458       0.00055052
Si       2.92259109       7.85270433      -9.28824116  T       0.00064726       0.00051712       0.00017169
Si       3.55653381       7.02749224      -6.94029014  T       0.00036066      -0.00018214      -0.00072086
Si      -2.58937583      -7.02749838      -6.94028972  T      -0.00036343       0.00017148      -0.00072082
Si      -1.96775609      -7.89512674      -4.67465328  T      -0.00037531      -0.00044686      -0.00035550
Si      -1.58062719       7.15679999      -8.93581917  T       0.00020080       0.00070478      -0.00059174
Si      -2.15743796       6.08869134      -6.82413699  T       0.00012768       0.00092731      -0.00004032
Si      -0.31606705      -5.82484018      -6.88611877  T      -0.00051366      -0.00127688      -0.00086175
Si       0.07648402      -6.74097931      -4.72728368  T      -0.00071177      -0.00055031      -0.00089676
Si       0.79522306       6.86623535      -8.98361665  T       0.00025206      -0.00091153      -0.00001108
Si       1.28322357       5.82483395      -6.88611758  T       0.00052530       0.00127341      -0.00086182
Si       3.12459519      -6.08869659      -6.82414149  T      -0.00012847      -0.00092726      -0.00004032
Si       2.40765134      -7.16537223      -4.73828947  T      -0.00001719      -0.00065139      -0.00040238
Si       5.16203083      -3.52921394      -8.87063414  T      -0.00058265      -0.00061884      -0.00017765
Si       5.08078572      -4.76885843      -6.81218250  T      -0.00046067       0.00025078      -0.00011067
Si      -4.25588698      -0.90575579      -6.89314815  T       0.00015709       0.00077177       0.00032108
Si      -4.24791110      -2.06123888      -4.80246138  T       0.00063877       0.00026046      -0.00014226
Si      -2.33426304      -3.51369121      -8.99561970  T       0.00062432      -0.00005209       0.00055388
Si      -2.35849705      -4.66285781      -6.89547416  T      -0.00029798       0.00057929      -0.00016581
Si      -0.48729964      -0.68162830      -6.89243769  T      -0.00098573       0.00038757      -0.00091096
Si      -0.50517514      -1.91682166      -4.79495373  T      -0.00013512       0.00021807       0.00002339
Si       1.52446088      -3.21996853      -8.95059077  T      -0.00073682      -0.00019445      -0.00110078
Si       1.52860430      -4.38272963      -6.84680636  T       0.00069226       0.00006812       0.00034047
Si       3.44019784      -0.61811713      -6.88186046  T       0.00040817       0.00036044       0.00026143
Si       3.48334931      -1.84888057      -4.79292699  T       0.00046713       0.00081574      -0.00084731
Si       5.16942895       2.08342627      -8.96891917  T       0.00048942       0.00018344      -0.00049445
Si       5.22304382       0.90574993      -6.89315214  T      -0.00016145      -0.00077815       0.00032057
Si      -4.11362846       4.76885323      -6.81217727  T       0.00046021      -0.00025056      -0.00011091
Si      -4.13187155       3.56797909      -4.73964865  T      -0.00002841      -0.00023137      -0.00025913
Si      -2.49617619       1.89361754      -8.93513250  T      -0.00030696       0.00025399       0.00065694
Si      -2.47304184       0.61811128      -6.88185814  T      -0.00040376      -0.00035544       0.00026107
Si      -0.56144757       4.38272398      -6.84680400  T      -0.00069488      -0.00006938       0.00034022
Si      -0.54613254       3.11531484      -4.78667402  T       0.00060357      -0.00078802      -0.00050350
Si       1.45313578       1.98511798      -8.96487873  T       0.00004181      -0.00058854      -0.00050008
Si       1.45445576       0.68162249      -6.89243841  T       0.00098487      -0.00038741      -0.00091133
Si       3.32565425       4.66285040      -6.89547496  T       0.00029108      -0.00055839      -0.00016478
Si       3.32561730       3.44145773      -4.80314041  T       0.00029726      -0.00021875      -0.00121337
Si       2.93491850       7.89511821      -4.67465221  T       0.00037270       0.00044723      -0.00035523
Si       3.88877498       6.91624286      -2.64304734  T      -0.00014603      -0.00115837      -0.00088362
Si      -2.92160933      -6.91625247      -2.64304622  T       0.00014178       0.00114429      -0.00088300
Si      -2.05864903      -7.80454867      -0.54153803  T      -0.00012875       0.00035635       0.00011142
Si      -1.44048979       7.16536574      -4.73828563  T       0.00001712       0.00065195      -0.00040315
Si      -2.09269277       6.08120202      -2.65527936  T       0.00074512      -0.00026133       0.00017928
Si      -0.29956611      -5.62782904      -2.66377146  T       0.00013394      -0.00045450       0.00036524
Si       0.00154890      -6.67964912      -0.56267668  T      -0.00116510      -0.00047265       0.00013644
Si       0.89067759       6.74097183      -4.72728155  T       0.00071059       0.00055444      -0.00089789
Si       1.26672872       5.62782003      -2.66377095  T      -0.00010209       0.00044900       0.00036482
Si       3.05985678      -6.08121052      -2.65528205  T      -0.00074654       0.00026039       0.00017905
Si       2.32611875      -7.14992686      -0.57600377  T      -0.00046285      -0.00044647      -0.00016257
Si       5.09903168      -3.56798617      -4.73965278  T       0.00002713       0.00023255      -0.00025894
Si       5.01906296      -4.76835553      -2.65665655  T       0.00032621      -0.00015437       0.00012775
Si      -4.28941437      -0.87914035      -2.71936679  T       0.00066014       0.00010296       0.00033065
Si      -4.29339940      -2.01025677      -0.60899191  T       0.00094602      -0.00033299      -0.00054908
Si      -2.35845727      -3.44146526      -4.80313910  T      -0.00028859       0.00020276      -0.00121082
Si      -2.38135756      -4.61111494      -2.69093579  T      -0.00092299      -0.00028228       0.00028127
Si      -0.50120356      -0.65973100      -2.70504284  T       0.00094134       0.00001982       0.00032832
Si      -0.51810194      -1.88859364      -0.60273978  T       0.00011680       0.00002800      -0.00084930
Si       1.51329267      -3.11532254      -4.78667539  T      -0.00060217       0.00078989      -0.00050420
Si       1.56916576      -4.27822230      -2.67867625  T      -0.00013156      -0.00017398       0.00098859
Si       3.46124818      -0.62503568      -2.70412689  T       0.00050879      -0.00021269      -0.00030775
Si       3.49414835      -1.83544147      -0.59858312  T       0.00055180       0.00038606      -0.00033013
Si       5.21507192       2.06123003      -4.80246420  T      -0.00064901      -0.00024917      -0.00014249
Si       5.25657693       0.87913186      -2.71936948  T      -0.00066680      -0.00011255       0.00033017
Si      -4.05190041       4.76834881      -2.65665329  T      -0.00032654       0.00015522       0.00012758
Si      -4.10522194       3.58790276      -0.56924069  T      -0.00038399       0.00018401       0.00025516
Si      -2.51618930       1.84887352      -4.79292419  T      -0.00046884      -0.00081886      -0.00084660
Si      -2.49408606       0.62502625      -2.70412518  T      -0.00050177       0.00022015      -0.00030795
Si      -0.60200147       4.27821399      -2.67867482  T       0.00011961       0.00016699       0.00098823
Si      -0.54361280       3.07269951      -0.59479191  T      -0.00041434       0.00016455       0.00001177
Si       1.47233516       1.91681380      -4.79495391  T       0.00013511      -0.00021624       0.00002359
Si       1.46836621       0.65972196      -2.70504338  T      -0.00094273      -0.00001938       0.00032795
Si       3.34852208       4.61110358      -2.69093665  T       0.00090648       0.00031602       0.00028224
Si       3.36560932       3.38049392      -0.60735912  T       0.00108390       0.00021499      -0.00065844
Si       3.02581661       7.80453802      -0.54153841  T       0.00012439      -0.00035645       0.00011174
Si       3.97799312       6.85280358       1.50185193  T      -0.00005089      -0.00051573      -0.00062215
Si      -3.01082545      -6.85281409       1.50185260  T       0.00004537       0.00049890      -0.00062219
Si      -2.14428839      -7.74448189       3.60599613  T      -0.00079421      -0.00040182       0.00014865
Si      -1.35895245       7.14991942      -0.57600310  T       0.00046260       0.00044721      -0.00016307
Si      -2.03839513       6.09032251       1.51184310  T       0.00012075      -0.00036190      -0.00040972
Si      -0.33441304      -5.57768344       1.51183018  T      -0.00072194      -0.00107499      -0.00000482
Si      -0.05949215      -6.66221916       3.60147893  T      -0.00152005       0.00120985       0.00048870
Si       0.96561746       6.67964003      -0.56267641  T       0.00116379       0.00047932       0.00013608
Si       1.30157722       5.57767397       1.51182972  T       0.00076590       0.00106845      -0.00000493
Si       3.00556121      -6.09033145       1.51184423  T      -0.00012251       0.00036037      -0.00040997
Si       2.25985904      -7.16043020       3.58404177  T       0.00004745      -0.00137901      -0.00010236
Si       5.07238563      -3.58791184      -0.56924194  T       0.00038251      -0.00018271       0.00025519
Si       4.97252259      -4.78852958       1.51319226  T      -0.00006159       0.00030493      -0.00031406
Si      -4.31324106      -0.84232949       1.48694566  T       0.00115289       0.00022509      -0.00006320
Si      -4.31549137      -1.96765228       3.60165042  T       0.00045803       0.00030357       0.00059791
Si      -2.39844510      -3.38050321      -0.60735843  T      -0.00107064      -0.00023769      -0.00065654
Si      -2.41504618      -4.56208227       1.49627917  T       0.00064390      -0.00140513       0.00006932
Si      -0.50674732      -0.65034896       1.49666995  T       0.00076815      -0.00041190       0.00058088
Si      -0.52975623      -1.87739619       3.59849425  T       0.00011636      -0.00011190      -0.00083618
Si       1.51077748      -3.07270942      -0.59479222  T       0.00041752      -0.00016135       0.00001137
Si       1.55237429      -4.25644366       1.50378079  T       0.00008665       0.00001705      -0.00050579
Si       3.46588403      -0.63458737       1.50194225  T       0.00159251       0.00094307      -0.00024407
Si       3.48183425      -1.85104670       3.60356935  T       0.00021930       0.00029574      -0.00049877
Si       5.26056430       2.01024500      -0.60899303  T      -0.00096031       0.00034832      -0.00054911
Si       5.28040522       0.84232045       1.48694602  T      -0.00116114      -0.00023651      -0.00006340
Si      -4.00535834       4.78852289       1.51319123  T       0.00006112      -0.00030382      -0.00031406
Si      -4.07753248       3.61733835       3.60651965  T      -0.00039190       0.00039028      -0.00005383
Si      -2.52698403       1.83543297      -0.59858229  T      -0.00055489      -0.00039046      -0.00032964
Si      -2.49872034       0.63457708       1.50194190  T      -0.00158362      -0.00093430      -0.00024421
Si      -0.58520769       4.25643507       1.50378013  T      -0.00010362      -0.00002741      -0.00050584
Si      -0.52361741       3.07549155       3.60092257  T      -0.00005681       0.00014539      -0.00039460
Si       1.48526654       1.88858355      -0.60273999  T      -0.00011768      -0.00002576      -0.00084917
Si       1.47391171       0.65033918       1.49666999  T      -0.00076969       0.00041242       0.00058072
Si       3.38221289       4.56206954       1.49627869  T      -0.00066600       0.00144738       0.00007047
Si       3.39393725       3.34459008       3.58866158  T       0.00055430       0.00005534       0.00048409
Si       3.11145533       7.74447154       3.60599479  T       0.00078978       0.00040154       0.00014871
Si       4.06545948       6.80698684       5.66425379  T       0.00069835       0.00029966      -0.00013727
Si      -3.09829430      -6.80699568       5.66425427  T      -0.00070363      -0.00031505      -0.00013740
Si      -2.27232869      -7.67225318       7.78513754  T      -0.00081305       0.00007304      -0.00013475
Si      -1.29269333       7.16042349       3.58403868  T      -0.00004756       0.00137980      -0.00010221
Si      -1.99073249       6.12404683       5.67682167  T       0.00011170      -0.00004090       0.00012555
Si      -0.37742315      -5.58277509       5.69398642  T       0.00122585      -0.00028087       0.00029840
Si      -0.12197255      -6.69953550       7.77283638  T      -0.00023129       0.00014825       0.00010123
Si       1.02665779       6.66221056       3.60147742  T       0.00151883      -0.00120317       0.00048929
Si       1.34458342       5.58276706       5.69398522  T      -0.00118685       0.00027452       0.00029799
Si       2.95789521      -6.12405316       5.67682605  T      -0.00011314       0.00003949       0.00012550
Si       2.20960785      -7.20187005       7.73645668  T       0.00025612       0.00011106       0.00060716
Si       5.04469558      -3.61734642       3.60652230  T       0.00039040      -0.00038889      -0.00005390
Si       4.92747374      -4.82046146       5.68088334  T      -0.00010488      -0.00082714      -0.00021812
Si      -4.30972578      -0.80320952       5.70080310  T       0.00050319      -0.00008866       0.00039188
Si      -4.30570420      -1.94328775       7.80484089  T       0.00035107      -0.00000119       0.00016625
Si      -2.42677400      -3.34459878       3.58866132  T      -0.00053985      -0.00007954       0.00048456
Si      -2.44284620      -4.53623737       5.68468131  T      -0.00077342       0.00075589       0.00072225
Si      -0.50669591      -0.64659144       5.70136662  T       0.00029336       0.00076690       0.00071439
Si      -0.52473366      -1.87878877       7.80036094  T      -0.00028785      -0.00035110       0.00012243
Si       1.49078096      -3.07550066       3.60092376  T       0.00006063      -0.00014202      -0.00039443
Si       1.52253635      -4.27760930       5.69150076  T      -0.00068284      -0.00049733       0.00005919
Si       3.45095799      -0.65958522       5.71099418  T      -0.00015850       0.00013571       0.00030129
Si       3.45192964      -1.89488920       7.80233768  T       0.00067745       0.00067123       0.00005276
Si       5.28265551       1.96764120       3.60165177  T      -0.00047320      -0.00028724       0.00059815
Si       5.27688686       0.80320221       5.70080621  T      -0.00051107       0.00007781       0.00039187
Si      -3.96031178       4.82045595       5.68087870  T       0.00010442       0.00082792      -0.00021785
Si      -4.09121320       3.62137386       7.75357299  T      -0.00040658       0.00036629       0.00022601
Si      -2.51467091       1.85103889       3.60356747  T      -0.00022271      -0.00030048      -0.00049876
Si      -2.48379788       0.65957736       5.71099206  T       0.00016711      -0.00012756       0.00030129
Si      -0.55537422       4.27760247       5.69149831  T       0.00066756       0.00048860       0.00005963
Si      -0.49473767       3.12897872       7.80708111  T      -0.00006681      -0.00048536      -0.00016704
Si       1.49691975       1.87738687       3.59849410  T      -0.00011754       0.00011412      -0.00083604
Si       1.47385653       0.64658392       5.70136716  T      -0.00029473      -0.00076643       0.00071441
Si       3.41000893       4.53622702       5.68468105  T       0.00075429      -0.00071714       0.00072351
Si       3.39037111       3.32952021       7.78269993  T      -0.00006269       0.00060523       0.00072592
Si       3.23949013       7.67224505       7.78513485  T       0.00080988      -0.00007300      -0.00013481
Si       4.42728642       6.67027588       9.69242490  T       0.00049982      -0.00011749       0.00046044
Si      -3.46012673      -6.67028163       9.69242656  T      -0.00050547       0.00010764       0.00045902
Si      -2.82494853      -7.01571694      12.00973239  T      -0.00028976      -0.00010621       0.00036794
Si      -1.24244737       7.20186497       7.73645176  T      -0.00025655      -0.00011030       0.00060758
Si      -2.06753427       6.14239779       9.77400972  T      -0.00007434       0.00050750       0.00013962
Si      -0.40766516      -5.72222041       9.90830670  T       0.00196084      -0.00012560       0.00087818
Si      -0.21818798      -7.12789066      11.84447693  T      -0.00031508       0.00002630      -0.00063341
Si       1.08913286       6.69952928       7.77283366  T       0.00023054      -0.00014390       0.00010286
Si       1.37481825       5.72221612       9.90830538  T      -0.00193828       0.00012216       0.00087796
Si       3.03468898      -6.14239978       9.77401473  T       0.00007568      -0.00050901       0.00013942
Si       2.25589274      -6.89464646      11.91564179  T      -0.00000064       0.00010037       0.00039725
Si       5.05837138      -3.62137849       7.75357769  T       0.00040551      -0.00036501       0.00022581
Si       4.99765939      -4.83471018       9.81859765  T      -0.00057898      -0.00006713       0.00045528
Si      -4.27020356      -0.77472574       9.89365941  T      -0.00045058      -0.00031113      -0.00033737
Si      -4.27631335      -1.95543472      11.96069964  T      -0.00028573       0.00049471       0.00080015
Si      -2.42321374      -3.32952583       7.78269928  T       0.00007382      -0.00062429       0.00072511
Si      -2.43260756      -4.58498312       9.84522338  T      -0.00049685       0.00101228      -0.00027499
Si      -0.50007997      -0.65859511       9.90538320  T      -0.00012238      -0.00019012       0.00031377
Si      -0.51226187      -1.98775777      11.95633771  T       0.00059760      -0.00069575       0.00015348
Si       1.46189484      -3.12898406       7.80708280  T       0.00007006       0.00048762      -0.00016620
Si       1.48961037      -4.40928558       9.86854697  T      -0.00131718      -0.00142124       0.00073002
Si       3.41614471      -0.70142301       9.90829846  T      -0.00072848      -0.00101772       0.00017690
Si       3.40960698      -1.99868484      11.96636046  T      -0.00056056       0.00014122      -0.00087535
Si       5.27286269       1.94328092       7.80484343  T      -0.00036280       0.00001423       0.00016695
Si       5.23735733       0.77472220       9.89366286  T       0.00044563       0.00030382      -0.00033702
Si      -4.03050348       4.83470668       9.81859276  T       0.00057813       0.00006697       0.00045547
Si      -4.16103811       3.62107986      11.89062955  T       0.00088920       0.00035548       0.00026919
Si      -2.48477222       1.89488410       7.80233452  T      -0.00068019      -0.00067499       0.00005248
Si      -2.44899224       0.70141996       9.90829654  T       0.00073385       0.00102295       0.00017691
Si      -0.52245669       4.40928257       9.86854481  T       0.00130583       0.00141705       0.00073051
Si      -0.47522084       3.31893907      12.00558277  T      -0.00105696      -0.00007731       0.00048210
Si       1.49189082       1.87878317       7.80036072  T       0.00028698       0.00035290       0.00012260
Si       1.46723251       0.65859198       9.90538369  T       0.00012168       0.00019025       0.00031402
Si       3.39976222       4.58497826       9.84522265  T       0.00048893      -0.00098774      -0.00027402
Si       3.39958327       3.42455810      11.97773039  T       0.00023645      -0.00034323       0.00010199
Si       3.79209923       7.01571341      12.00972720  T       0.00028929       0.00010628       0.00036764
Si       5.31929168       6.15486635      13.98490139  F      -0.73409598       0.35326422      -0.16043390
Si      -4.35214774      -6.15486635      13.98490139  F       0.73409644      -0.35326727      -0.16043173
Si      -4.35214774      -7.52261443      15.91918927  F       0.23567766       0.75385001       0.07780877
Si      -1.28873849       6.89463608      11.91564048  T      -0.00000027      -0.00009984       0.00039761
Si      -2.41785985       6.15486635      13.98490139  F       0.25952841       0.00864553       0.10108775
Si      -0.48357197      -6.15486635      13.98490139  F       0.06233236       0.36333293       0.14533721
Si      -0.48357197      -7.52261443      15.91918927  F      -0.02783946       0.05297124       0.03206247
Si       1.18534458       7.12788874      11.84447459  T       0.00031444      -0.00002504      -0.00063209
Si       1.45071591       6.15486635      13.98490139  F      -0.06233136      -0.36333771       0.14533857
Si       3.38500379      -6.15486635      13.98490139  F      -0.25952823      -0.00864227       0.10108931
Si       3.38500379      -7.52261443      15.91918927  F      -0.21722543       0.16944878       0.00395806
Si       5.12818937      -3.62107855      11.89063142  T      -0.00088973      -0.00035511       0.00026919
Si       5.31929168      -4.78711827      13.98490139  F      -0.31445567       0.05122898      -0.42845248
Si      -4.35214774      -0.68387404      13.98490139  F       0.18918225      -0.11506677      -0.14170791
Si      -4.35214774      -2.05162212      15.91918927  F       0.11618519       0.16463013      -0.06868327
Si      -2.43243526      -3.42455887      11.97773016  T      -0.00023287       0.00033659       0.00009944
Si      -2.41785985      -4.78711827      13.98490139  F      -0.20703877      -0.01665455      -0.22273032
Si      -0.48357197      -0.68387404      13.98490139  F       0.05857964       0.04363465      -0.23577560
Si      -0.48357197      -2.05162212      15.91918927  F       0.06290966      -0.04338190      -0.06599772
Si       1.44236885      -3.31893974      12.00558337  T       0.00105813       0.00007811       0.00048277
Si       1.45071591      -4.78711827      13.98490139  F      -0.01414892       0.10802685      -0.31022551
Si       3.38500379      -0.68387404      13.98490139  F       0.21555012       0.03873092      -0.11271514
Si       3.38500379      -2.05162212      15.91918927  F       0.10710393      -0.08165156      -0.08002804
Si       5.24346239       1.95543428      11.96070076  T       0.00028207      -0.00048974       0.00080139
Si       5.31929168       0.68387404      13.98490139  F      -0.18917929       0.11506254      -0.14170028
Si      -4.35214774       4.78711827      13.98490139  F       0.31446216      -0.05123238      -0.42845990
Si      -4.35214774       3.41937020      15.91918927  F       0.11635639       0.08772637      -0.07033065
Si      -2.44245850       1.99868334      11.96635908  T       0.00055975      -0.00014263      -0.00087601
Si      -2.41785985       0.68387404      13.98490139  F      -0.21554630      -0.03873133      -0.11271766
Si      -0.48357197       4.78711827      13.98490139  F       0.01415346      -0.10802907      -0.31023104
Si      -0.48357197       3.41937020      15.91918927  F       0.06920555      -0.13854466       0.03052824
Si       1.47940995       1.98775669      11.95633741  T      -0.00059782       0.00069640       0.00015374
Si       1.45071591       0.68387404      13.98490139  F      -0.05857636      -0.04363617      -0.23577504
Si       3.38500379       4.78711827      13.98490139  F       0.20704164       0.01665512      -0.22272727
Si       3.38500379       3.41937020      15.91918927  F       0.13114330      -0.15598469       0.02769054
Si       5.31929168       7.52261443      15.91918927  F      -0.23567785      -0.75384797       0.07780837
Si       5.31929168       6.15486635      17.85347716  F      -0.38969434       0.71159749       0.21994254
Si      -4.35214774      -6.15486635      17.85347716  F       0.38969433      -0.71159782       0.21994274
Si      -4.35214774      -7.52261443      19.78776504  F       0.54184052       0.74251851      -1.09392988
Si      -2.41785985       7.52261443      15.91918927  F       0.21722675      -0.16945064       0.00395677
Si      -2.41785985       6.15486635      17.85347716  F      -0.02187310       0.23516379       0.15817778
Si      -0.48357197      -6.15486635      17.85347716  F       0.04997338      -0.27054058       0.07111036
Si      -0.48357197      -7.52261443      19.78776504  F       0.01769096       0.54943637      -0.75920988
Si       1.45071591       7.52261443      15.91918927  F       0.02783953      -0.05297084       0.03206303
Si       1.45071591       6.15486635      17.85347716  F      -0.04997347       0.27054052       0.07110992
Si       3.38500379      -6.15486635      17.85347716  F       0.02187325      -0.23516352       0.15817749
Si       3.38500379      -7.52261443      19.78776504  F      -0.39573061       0.57544696      -0.86165309
Si       5.31929168      -3.41937020      15.91918927  F      -0.11635597      -0.08772704      -0.07033086
Si       5.31929168      -4.78711827      17.85347716  F      -0.22482520       0.27523580       0.21885416
Si      -4.35214774      -0.68387404      17.85347716  F       0.17569479      -0.33093797       0.18399715
Si      -4.35214774      -2.05162212      19.78776504  F       0.81550862      -0.00890120      -0.80454338
Si      -2.41785985      -3.41937020      15.91918927  F      -0.13114286       0.15598456       0.02769106
Si      -2.41785985      -4.78711827      17.85347716  F      -0.11800419      -0.07484321       0.16474159
Si      -0.48357197      -0.68387404      17.85347716  F       0.11108329      -0.04454051       0.12717512
Si      -0.48357197      -2.05162212      19.78776504  F       0.08852537      -0.23175969      -0.13679287
Si       1.45071591      -3.41937020      15.91918927  F      -0.06920602       0.13854422       0.03052609
Si       1.45071591      -4.78711827      17.85347716  F      -0.12682643       0.00775594       0.22856673
Si       3.38500379      -0.68387404      17.85347716  F       0.07811375      -0.00433711       0.08596604
Si       3.38500379      -2.05162212      19.78776504  F       0.18274240      -0.32396504      -0.17712215
Si       5.31929168       2.05162212      15.91918927  F      -0.11618461      -0.16462988      -0.06868337
Si       5.31929168       0.68387404      17.85347716  F      -0.17569481       0.33093794       0.18399731
Si      -4.35214774       4.78711827      17.85347716  F       0.22482531      -0.27523584       0.21885410
Si      -4.35214774       3.41937020      19.78776504  F       0.77761364      -0.02593714      -0.78664786
Si      -2.41785985       2.05162212      15.91918927  F      -0.10710376       0.08165173      -0.08002831
Si      -2.41785985       0.68387404      17.85347716  F      -0.07811392       0.00433712       0.08596584
Si      -0.48357197       4.78711827      17.85347716  F       0.12682626      -0.00775610       0.22856713
Si      -0.48357197       3.41937020      19.78776504  F       0.08848543      -0.21772758      -0.10453482
Si       1.45071591       2.05162212      15.91918927  F      -0.06290981       0.04338218      -0.06599776
Si       1.45071591       0.68387404      17.85347716  F      -0.11108340       0.04454045       0.12717520
Si       3.38500379       4.78711827      17.85347716  F       0.11800402       0.07484331       0.16474177
Si       3.38500379       3.41937020      19.78776504  F       0.23008711      -0.29877825      -0.15218720
