360
Lattice="11.605727294873521 0.0 0.0 0.0 16.412976941613742 0.0 0.0 0.0 38.6857576495784" Properties=species:S:1:pos:R:3:move_mask:L:1:forces:R:3 energy=-1739.8078673038654 free_energy=-1739.8078673038654 pbc="F F F"
Si       5.31929168       7.52261443      19.78776504  F      -0.54185521      -0.74252035      -1.09394462
Si       5.31929168       6.15486635     -18.82062110  F      -0.85639029       0.15963262       1.05499290
Si      -4.35214774      -6.15486635     -18.82062110  F       0.85639030      -0.15963264       1.05499292
Si      -4.35214774      -7.52261443     -16.88633321  F       0.06917593       0.94735106      -0.22271100
Si      -2.41785985       7.52261443      19.78776504  F       0.39572116      -0.57546759      -0.86165047
Si      -2.41785985       6.15486635     -18.82062110  F      -0.11509080      -0.24145759       0.66473201
Si      -0.48357197      -6.15486635     -18.82062110  F       0.05462105       0.07976891       0.64007349
Si      -0.48357197      -7.52261443     -16.88633321  F      -0.00101747       0.36771896      -0.25093784
Si       1.45071591       7.52261443      19.78776504  F      -0.01769530      -0.54944054      -0.75921441
Si       1.45071591       6.15486635     -18.82062110  F      -0.05462105      -0.07976890       0.64007347
Si       3.38500379      -6.15486635     -18.82062110  F       0.11509079       0.24145759       0.66473198
Si       3.38500379      -7.52261443     -16.88633321  F      -0.10922253       0.43383428      -0.17416163
Si       5.31929168      -3.41937020      19.78776504  F      -0.77762427       0.02593058      -0.78665040
Si       5.31929168      -4.78711827     -18.82062110  F      -0.80221219       0.03025796       0.77579452
Si      -4.35214774      -0.68387404     -18.82062110  F       0.80646002       0.00428896       0.80421914
Si      -4.35214774      -2.05162212     -16.88633321  F       0.17993914       0.30877025      -0.18241620
Si      -2.41785985      -3.41937020      19.78776504  F      -0.23008489       0.29876377      -0.15218492
Si      -2.41785985      -4.78711827     -18.82062110  F      -0.23057507      -0.26322436       0.16748932
Si      -0.48357197      -0.68387404     -18.82062110  F       0.08824276       0.22146861       0.11637822
Si      -0.48357197      -2.05162212     -16.88633321  F       0.11459045      -0.00456793      -0.15613976
Si       1.45071591      -3.41937020      19.78776504  F      -0.08847939       0.21770244      -0.10452724
Si       1.45071591      -4.78711827     -18.82062110  F      -0.08727724      -0.07374920       0.07448748
Si       3.38500379      -0.68387404     -18.82062110  F       0.19609687       0.34315638       0.16476894
Si       3.38500379      -2.05162212     -16.88633321  F       0.06528646      -0.05182217      -0.11676202
Si       5.31929168       2.05162212      19.78776504  F      -0.81551372       0.00890319      -0.80455395
Si       5.31929168       0.68387404     -18.82062110  F      -0.80645999      -0.00428896       0.80421912
Si      -4.35214774       4.78711827     -18.82062110  F       0.80221223      -0.03025797       0.77579456
Si      -4.35214774       3.41937020     -16.88633321  F       0.15688324       0.29290284      -0.18651766
Si      -2.41785985       2.05162212      19.78776504  F      -0.18275021       0.32395291      -0.17711331
Si      -2.41785985       0.68387404     -18.82062110  F      -0.19609689      -0.34315637       0.16476896
Si      -0.48357197       4.78711827     -18.82062110  F       0.08727725       0.07374920       0.07448753
Si      -0.48357197       3.41937020     -16.88633321  F       0.11361690       0.01095170      -0.14057300
Si       1.45071591       2.05162212      19.78776504  F      -0.08851343       0.23173937      -0.13679862
Si       1.45071591       0.68387404     -18.82062110  F      -0.08824275      -0.22146861       0.11637821
Si       3.38500379       4.78711827     -18.82062110  F       0.23057507       0.26322437       0.16748933
Si       3.38500379       3.41937020     -16.88633321  F       0.11051704       0.01973879      -0.10815189
Si       5.31929168       7.52261443     -16.88633321  F      -0.06917594      -0.94735096      -0.22271110
Si       5.31929168       6.15486635     -14.95204533  F      -0.46208535       0.44023571       0.07952019
Si      -4.35214774      -6.15486635     -14.95204533  F       0.46208541      -0.44023584       0.07952027
Si      -4.35214774      -7.52261443     -13.01775745  F       0.01344415       0.35929288      -0.54885804
Si      -2.41785985       7.52261443     -16.88633321  F       0.10922242      -0.43383422      -0.17416154
Si      -2.41785985       6.15486635     -14.95204533  F      -0.02984622      -0.12431812       0.08787075
Si      -0.48357197      -6.15486635     -14.95204533  F      -0.13624628       0.01884747      -0.02601524
Si      -0.48357197      -7.52261443     -13.01775745  F      -0.12757262       0.46682050       0.82917906
Si       1.45071591       7.52261443     -16.88633321  F       0.00101739      -0.36771903      -0.25093779
Si       1.45071591       6.15486635     -14.95204533  F       0.13624635      -0.01884758      -0.02601510
Si       3.38500379      -6.15486635     -14.95204533  F       0.02984669       0.12431785       0.08787061
Si       3.38500379      -7.52261443     -13.01775745  F      -0.18159800       0.21810058       0.17790029
Si       5.31929168      -3.41937020     -16.88633321  F      -0.15688325      -0.29290290      -0.18651782
Si       5.31929168      -4.78711827     -14.95204533  F      -0.15594035       0.12966951       0.08884879
Si      -4.35214774      -0.68387404     -14.95204533  F       0.13263313      -0.16745426       0.08674265
Si      -4.35214774      -2.05162212     -13.01775745  F       0.16618408       0.01841415       0.12411177
Si      -2.41785985      -3.41937020     -16.88633321  F      -0.11051717      -0.01973876      -0.10815189
Si      -2.41785985      -4.78711827     -14.95204533  F      -0.18693642      -0.18820513       0.23595556
Si      -0.48357197      -0.68387404     -14.95204533  F       0.08599934       0.01432597       0.07811619
Si      -0.48357197      -2.05162212     -13.01775745  F       0.07909597       0.09301363       0.22174191
Si       1.45071591      -3.41937020     -16.88633321  F      -0.11361705      -0.01095167      -0.14057311
Si       1.45071591      -4.78711827     -14.95204533  F      -0.04202769      -0.15127515       0.13188679
Si       3.38500379      -0.68387404     -14.95204533  F       0.12864193       0.09478624       0.09406434
Si       3.38500379      -2.05162212     -13.01775745  F       0.14666839       0.10065771       0.08691017
Si       5.31929168       2.05162212     -16.88633321  F      -0.17993913      -0.30877033      -0.18241632
Si       5.31929168       0.68387404     -14.95204533  F      -0.13263264       0.16745466       0.08674237
Si      -4.35214774       4.78711827     -14.95204533  F       0.15594107      -0.12966932       0.08884876
Si      -4.35214774       3.41937020     -13.01775745  F       0.15583826       0.12891920       0.29354600
Si      -2.41785985       2.05162212     -16.88633321  F      -0.06528655       0.05182225      -0.11676196
Si      -2.41785985       0.68387404     -14.95204533  F      -0.12864160      -0.09478622       0.09406455
Si      -0.48357197       4.78711827     -14.95204533  F       0.04202790       0.15127523       0.13188688
Si      -0.48357197       3.41937020     -13.01775745  F      -0.10095735      -0.43677925      -0.09905687
Si       1.45071591       2.05162212     -16.88633321  F      -0.11459059       0.00456797      -0.15613978
Si       1.45071591       0.68387404     -14.95204533  F      -0.08599931      -0.01432587       0.07811607
Si       3.38500379       4.78711827     -14.95204533  F       0.18693666       0.18820527       0.23595551
Si       3.38500379       3.41937020     -13.01775745  F       0.03975171       0.05104069       0.02716702
Si       5.31929168       7.52261443     -13.01775745  F      -0.01344179      -0.35929241      -0.54885978
Si       3.48329791       7.08643208     -11.64444072  T      -0.00034903       0.00017865      -0.00028625
Si      -2.51615323      -7.08643250     -11.64444095  T       0.00034904      -0.00017849      -0.00028622
Si      -1.95661556      -7.85352548      -9.28846104  T      -0.00017578      -0.00005640       0.00015899
Si      -2.41785985       7.52261443     -13.01775745  F       0.18159885      -0.21810199       0.17790240
Si      -2.42469419       6.16118247     -11.03218633  T       0.00020051      -0.00003816      -0.00003039
Si      -0.12875239      -5.97932608     -11.16114865  T      -0.00003117      -0.00013221      -0.00014969
Si       0.17071040      -6.86686466      -8.98411234  T       0.00034064      -0.00023880      -0.00012266
Si       1.45071591       7.52261443     -13.01775745  F       0.12757429      -0.46682160       0.82918103
Si       1.09589916       5.97932532     -11.16114824  T       0.00003091       0.00013228      -0.00014973
Si       3.39184157      -6.16118217     -11.03218715  T      -0.00020063       0.00003811      -0.00003036
Si       2.54654456      -7.15867555      -8.93634696  T      -0.00052373      -0.00003944       0.00030118
Si       5.31929168      -3.41937020     -13.01775745  F      -0.15583570      -0.12891885       0.29354180
Si       5.23437165      -4.68705970     -10.95227778  T       0.00020725       0.00041196       0.00007607
Si      -4.25957057      -0.82721686     -10.98536839  T      -0.00001916       0.00007325      -0.00013470
Si      -4.20304600      -2.08297081      -8.96963213  T      -0.00010299       0.00016715       0.00010106
Si      -2.41785985      -3.41937020     -13.01775745  F      -0.03974998      -0.05104237       0.02716816
Si      -2.16541795      -4.78845505     -11.07366428  T       0.00005905       0.00026952       0.00005730
Si      -0.48245247      -0.68755577     -11.00733978  T       0.00015408      -0.00029524      -0.00055233
Si      -0.48622425      -1.98488508      -8.96558191  T      -0.00009967      -0.00008930       0.00004020
Si       1.45071591      -3.41937020     -13.01775745  F       0.10095855       0.43677849      -0.09905792
Si       1.68292101      -4.56131356     -10.98233208  T      -0.00020416       0.00043639      -0.00023880
Si       3.40902757      -0.67126919     -11.01736293  T       0.00003875       0.00043144      -0.00012063
Si       3.46292403      -1.89445563      -8.93543266  T       0.00047860      -0.00014492       0.00007693
Si       5.31929168       2.05162212     -13.01775745  F      -0.16618225      -0.01841459       0.12410767
Si       5.22671799       0.82721508     -10.98536987  T       0.00001920      -0.00007297      -0.00013453
Si      -4.26722287       4.68705827     -10.95227631  T      -0.00020736      -0.00041189       0.00007604
Si      -4.19417962       3.53030805      -8.87074878  T       0.00028837       0.00003516       0.00009387
Si      -2.41785985       2.05162212     -13.01775745  F      -0.14666688      -0.10065968       0.08691197
Si      -2.44188110       0.67126869     -11.01736236  T      -0.00003899      -0.00043154      -0.00012065
Si      -0.71577441       4.56131292     -10.98233140  T       0.00020410      -0.00043638      -0.00023886
Si      -0.55661482       3.22042164      -8.95108515  T      -0.00015903      -0.00022309      -0.00031043
Si       1.45071591       2.05162212     -13.01775745  F      -0.07909418      -0.09301493       0.22174162
Si       1.44959882       0.68755503     -11.00734008  T      -0.00015421       0.00029532      -0.00055230
Si       3.13256456       4.78845433     -11.07366407  T      -0.00005910      -0.00026974       0.00005725
Si       3.30187934       3.51297558      -8.99628352  T       0.00016692      -0.00004051      -0.00005507
Si       2.92376494       7.85352415      -9.28846010  T       0.00017561       0.00005647       0.00015892
Si       3.55880361       7.02676597      -6.94191459  T       0.00017571      -0.00019489      -0.00024835
Si      -2.59165038      -7.02676927      -6.94191378  T      -0.00017579       0.00019616      -0.00024834
Si      -1.97058638      -7.89528116      -4.67673187  T      -0.00007138      -0.00024465      -0.00024670
Si      -1.57939433       7.15867337      -8.93634514  T       0.00052348       0.00003951       0.00030110
Si      -2.15578860       6.09030462      -6.82474266  T      -0.00020114       0.00030113      -0.00008910
Si      -0.31722797      -5.82516282      -6.88695486  T      -0.00045616      -0.00012334       0.00000024
Si       0.07426703      -6.74218649      -4.72836430  T      -0.00007339       0.00038581       0.00009641
Si       0.79643963       6.86686255      -8.98411100  T      -0.00034085       0.00023882      -0.00012259
Si       1.28438059       5.82515980      -6.88695435  T       0.00045467       0.00012387       0.00000015
Si       3.12294132      -6.09030656      -6.82474517  T       0.00020083      -0.00030099      -0.00008900
Si       2.40545004      -7.16702502      -4.73917935  T      -0.00012405      -0.00022851      -0.00009556
Si       5.16133004      -3.53030869      -8.87075102  T      -0.00028849      -0.00003522       0.00009393
Si       5.07888051      -4.77004101      -6.81250519  T       0.00019930      -0.00041499      -0.00045768
Si      -4.25669926      -0.90457871      -6.89415749  T       0.00030453       0.00022207      -0.00001191
Si      -4.24814043      -2.06002566      -4.80359285  T      -0.00035336      -0.00001001       0.00007177
Si      -2.33472999      -3.51297782      -8.99628257  T      -0.00016746       0.00004140      -0.00005543
Si      -2.35914317      -4.66230566      -6.89662665  T      -0.00031428      -0.00040633       0.00000227
Si      -0.48756548      -0.68124716      -6.89356834  T      -0.00021990      -0.00007445       0.00002790
Si      -0.50543669      -1.91641240      -4.79622035  T      -0.00036537      -0.00017111       0.00016035
Si       1.52376392      -3.22042310      -8.95108586  T       0.00015873       0.00022316      -0.00031036
Si       1.52784175      -4.38345439      -6.84743350  T      -0.00009505      -0.00017129      -0.00026582
Si       3.44041351      -0.61852751      -6.88269566  T      -0.00045108      -0.00023092      -0.00002739
Si       3.48297409      -1.84951303      -4.79405460  T       0.00035490       0.00019692       0.00032163
Si       5.17019575       2.08296914      -8.96963397  T       0.00010322      -0.00016756       0.00010111
Si       5.22385136       0.90457579      -6.89416013  T      -0.00030439      -0.00022130      -0.00001174
Si      -4.11172777       4.77003909      -6.81250210  T      -0.00019957       0.00041513      -0.00045780
Si      -4.13105083       3.56909263      -4.74022047  T       0.00039547      -0.00015470      -0.00023717
Si      -2.49577478       1.89445382      -8.93543109  T      -0.00047878       0.00014523       0.00007680
Si      -2.47326174       0.61852511      -6.88269409  T       0.00045037       0.00023057      -0.00002745
Si      -0.56068961       4.38345198      -6.84743233  T       0.00009499       0.00017149      -0.00026588
Si      -0.54543210       3.11551696      -4.78775705  T       0.00004305      -0.00004461       0.00008672
Si       1.45337324       1.98488341      -8.96558202  T       0.00009940       0.00008936       0.00004019
Si       1.45471715       0.68124458      -6.89356884  T       0.00021965       0.00007456       0.00002796
Si       3.32629554       4.66230265      -6.89662752  T       0.00031460       0.00040449       0.00000220
Si       3.32619465       3.44054740      -4.80473917  T      -0.00003114       0.00027567      -0.00001525
Si       2.93774273       7.89527696      -4.67673171  T       0.00007109       0.00024489      -0.00024683
Si       3.89111866       6.91514439      -2.64556098  T       0.00009337      -0.00010974       0.00049135
Si      -2.92396038      -6.91514964      -2.64555988  T      -0.00009358       0.00011140       0.00049128
Si      -2.06233156      -7.80372753      -0.54337221  T       0.00004458       0.00006612      -0.00014912
Si      -1.43829421       7.16702263      -4.73917748  T       0.00012355       0.00022856      -0.00009554
Si      -2.09030032       6.08237348      -2.65635183  T      -0.00011593       0.00005211       0.00003936
Si      -0.30120058      -5.62833494      -2.66494608  T      -0.00048564       0.00003173      -0.00012182
Si      -0.00131720      -6.68045015      -0.56375665  T      -0.00008937       0.00032899       0.00025770
Si       0.89288873       6.74218330      -4.72836333  T       0.00007302      -0.00038602       0.00009646
Si       1.26835794       5.62833069      -2.66494594  T       0.00048209      -0.00003092      -0.00012183
Si       3.05745763      -6.08237657      -2.65635334  T       0.00011549      -0.00005193       0.00003942
Si       2.32316506      -7.15144401      -0.57740549  T      -0.00005775       0.00006726       0.00017230
Si       5.09820537      -3.56909522      -4.74022311  T      -0.00039571       0.00015466      -0.00023707
Si       5.01702297      -4.76981462      -2.65752820  T      -0.00016042      -0.00057641       0.00009675
Si      -4.28926956      -0.87822182      -2.72037741  T       0.00012644      -0.00013487      -0.00005378
Si      -4.29328616      -2.00956033      -0.61020023  T       0.00002874       0.00031220       0.00004450
Si      -2.35904005      -3.44055137      -4.80473801  T       0.00002990      -0.00027393      -0.00001550
Si      -2.38252297      -4.61043396      -2.69272155  T      -0.00016458      -0.00038029       0.00006136
Si      -0.50118129      -0.65968138      -2.70612389  T       0.00010498       0.00045809       0.00011867
Si      -0.51834120      -1.88879558      -0.60399903  T       0.00001475       0.00018064       0.00023271
Si       1.51258647      -3.11552015      -4.78775782  T      -0.00004362       0.00004459       0.00008682
Si       1.56766024      -4.27870547      -2.67977242  T       0.00007547      -0.00032163       0.00043551
Si       3.46092047      -0.62562087      -2.70536225  T       0.00030574      -0.00027054       0.00031689
Si       3.49403391      -1.83607436      -0.59984329  T      -0.00008408      -0.00004793       0.00006722
Si       5.21529491       2.06002183      -4.80359495  T       0.00035395       0.00000913       0.00007186
Si       5.25642532       0.87821780      -2.72037929  T      -0.00012621       0.00013606      -0.00005368
Si      -4.04986641       4.76981251      -2.65752623  T       0.00016003       0.00057657       0.00009668
Si      -4.10440865       3.58931313      -0.57026091  T       0.00062669      -0.00023565       0.00033152
Si      -2.51581991       1.84951005      -4.79405283  T      -0.00035515      -0.00019635       0.00032155
Si      -2.49376469       0.62561706      -2.70536106  T      -0.00030680       0.00026998       0.00031688
Si      -0.60050356       4.27870192      -2.67977171  T      -0.00007476       0.00032249       0.00043551
Si      -0.54329792       3.07316486      -0.59594015  T       0.00043120       0.00027573       0.00019452
Si       1.47259088       1.91640898      -4.79622062  T       0.00036503       0.00017115       0.00016036
Si       1.46833706       0.65967748      -2.70612429  T      -0.00010529      -0.00045789       0.00011870
Si       3.34967977       4.61042931      -2.69272231  T       0.00016570       0.00037735       0.00006125
Si       3.36616541       3.38051036      -0.60870229  T      -0.00016319      -0.00034492       0.00004805
Si       3.02949149       7.80372208      -0.54337257  T      -0.00004488      -0.00006573      -0.00014913
Si       3.98060674       6.85176176       1.50049684  T       0.00017940      -0.00000241      -0.00013804
Si      -3.01344690      -6.85176763       1.50049722  T      -0.00017966       0.00000449      -0.00013811
Si      -2.14753859      -7.74363727       3.60495266  T       0.00011459       0.00027832       0.00023533
Si      -1.35600590       7.15144143      -0.57740518  T       0.00005715      -0.00006726       0.00017233
Si      -2.03592537       6.09239124       1.51067664  T       0.00001248      -0.00027637      -0.00009787
Si      -0.33598269      -5.57823105       1.51094177  T      -0.00026288       0.00018147       0.00014802
Si      -0.06239429      -6.66190866       3.60132412  T      -0.00026064      -0.00012398      -0.00031665
Si       0.96847624       6.68044631      -0.56375657  T       0.00008888      -0.00032942       0.00025776
Si       1.30314167       5.57822661       1.51094153  T       0.00025788      -0.00018047       0.00014810
Si       3.00308423      -6.09239442       1.51067720  T      -0.00001296       0.00027665      -0.00009787
Si       2.25672212      -7.16188636       3.58327682  T      -0.00034728      -0.00002234      -0.00026429
Si       5.07156562      -3.58931635      -0.57026180  T      -0.00062702       0.00023557       0.00033158
Si       4.96955380      -4.78971459       1.51210841  T      -0.00012700      -0.00037298      -0.00006495
Si      -4.31303010      -0.84188214       1.48595829  T       0.00036224      -0.00001232       0.00010304
Si      -4.31541076      -1.96624088       3.60130272  T      -0.00002397       0.00010405      -0.00013953
Si      -2.39900788      -3.38051536      -0.60870169  T       0.00016137       0.00034745       0.00004786
Si      -2.41601363      -4.56163307       1.49537832  T      -0.00021810       0.00007424      -0.00033844
Si      -0.50674438      -0.65038537       1.49556007  T      -0.00021283       0.00013415       0.00002000
Si      -0.53001954      -1.87739569       3.59748667  T       0.00006441      -0.00010229       0.00014651
Si       1.51045531      -3.07316889      -0.59594034  T      -0.00043203      -0.00027585       0.00019461
Si       1.55131402      -4.25739646       1.50246421  T      -0.00023253       0.00004029       0.00003615
Si       3.46579499      -0.63496344       1.50067522  T       0.00001989      -0.00033491       0.00024257
Si       3.48144757      -1.85171148       3.60238542  T      -0.00026543       0.00009598       0.00015449
Si       5.26044323       2.00955515      -0.61020110  T      -0.00002781      -0.00031342       0.00004455
Si       5.28018688       0.84187791       1.48595844  T      -0.00036181       0.00001376       0.00010305
Si      -4.00239599       4.78971282       1.51210789  T       0.00012651       0.00037314      -0.00006492
Si      -4.07623249       3.61897548       3.60556218  T       0.00034464      -0.00023081      -0.00024221
Si      -2.52687698       1.83607095      -0.59984267  T       0.00008393       0.00004865       0.00006712
Si      -2.49863807       0.63495933       1.50067507  T      -0.00002127       0.00033421       0.00024253
Si      -0.58415586       4.25739280       1.50246387  T       0.00023381      -0.00003902       0.00003618
Si      -0.52307396       3.07615303       3.59967026  T       0.00012856      -0.00021585      -0.00014861
Si       1.48549829       1.88879120      -0.60399921  T      -0.00001507      -0.00018060       0.00023271
Si       1.47390133       0.65038120       1.49556008  T       0.00021251      -0.00013394       0.00002001
Si       3.38317181       4.56162795       1.49537807  T       0.00021988      -0.00007819      -0.00033853
Si       3.39466709       3.34416758       3.58805185  T      -0.00043084      -0.00005221      -0.00004892
Si       3.11469828       7.74363188       3.60495213  T      -0.00011488      -0.00027803       0.00023542
Si       4.06832773       6.80581355       5.66323202  T       0.00068884      -0.00035643       0.00036595
Si      -3.10116935      -6.80581865       5.66323190  T      -0.00068898       0.00035827       0.00036595
Si      -2.27562395      -7.67050608       7.78445804  T       0.00007708      -0.00023950      -0.00014301
Si      -1.28956316       7.16188425       3.58327521  T       0.00034672       0.00002228      -0.00026423
Si      -1.98827290       6.12519980       5.67581519  T      -0.00017277       0.00022444       0.00011312
Si      -0.37909020      -5.58226217       5.69394179  T       0.00003979      -0.00007067      -0.00028098
Si      -0.12450777      -6.69923013       7.77280607  T      -0.00015199      -0.00004424      -0.00017086
Si       1.02955305       6.66190507       3.60132342  T       0.00026011       0.00012353      -0.00031664
Si       1.34624645       5.58225835       5.69394129  T      -0.00004395       0.00007153      -0.00028087
Si       2.95542966      -6.12520155       5.67581754  T       0.00017230      -0.00022430       0.00011305
Si       2.20702813      -7.20202306       7.73588598  T      -0.00046813      -0.00050609       0.00031740
Si       5.04338920      -3.61897812       3.60556373  T      -0.00034498       0.00023072      -0.00024230
Si       4.92529126      -4.82204571       5.67994104  T      -0.00011934       0.00002188       0.00015057
Si      -4.30930237      -0.80200716       5.70060332  T       0.00004936      -0.00025357      -0.00044864
Si      -4.30574631      -1.94204681       7.80460872  T      -0.00003823       0.00013561       0.00027594
Si      -2.42751006      -3.34417232       3.58805160  T       0.00042890       0.00005487      -0.00004900
Si      -2.44439762      -4.53544134       5.68433391  T       0.00015176       0.00025725       0.00004551
Si      -0.50667585      -0.64655056       5.70078140  T       0.00008247       0.00031444      -0.00001749
Si      -0.52487910      -1.87868775       7.80006279  T      -0.00028640       0.00009351      -0.00028984
Si       1.49023073      -3.07615661       3.59967088  T      -0.00012940       0.00021571      -0.00014871
Si       1.52132124      -4.27780139       5.69070870  T      -0.00012420      -0.00021779      -0.00004342
Si       3.45036265      -0.66046636       5.71023241  T       0.00018687      -0.00007341       0.00000517
Si       3.45163758      -1.89551993       7.80174024  T      -0.00005351       0.00004417      -0.00014142
Si       5.28256738       1.96623609       3.60130366  T       0.00002502      -0.00010544      -0.00013956
Si       5.27645728       0.80200370       5.70060533  T      -0.00004899       0.00025484      -0.00044867
Si      -3.95813476       4.82204426       5.67993842  T       0.00011890      -0.00002179       0.00015067
Si      -4.09018665       3.62278143       7.75265749  T       0.00030897      -0.00012559       0.00022388
Si      -2.51429119       1.85170842       3.60238432  T       0.00026530      -0.00009524       0.00015452
Si      -2.48320795       0.66046341       5.71023105  T      -0.00018811       0.00007273       0.00000523
Si      -0.55416591       4.27779859       5.69070748  T       0.00012527       0.00021876      -0.00004344
Si      -0.49427064       3.12942782       7.80663817  T      -0.00000946       0.00014325       0.00031443
Si       1.49717602       1.87739173       3.59748666  T      -0.00006469       0.00010229       0.00014653
Si       1.47383049       0.64654748       5.70078177  T      -0.00008271      -0.00031433      -0.00001751
Si       3.41155334       4.53543734       5.68433409  T      -0.00015044      -0.00026071       0.00004541
Si       3.39092726       3.32885356       7.78252342  T      -0.00001486       0.00050303       0.00004424
Si       3.24278008       7.67050171       7.78445693  T      -0.00007739       0.00023985      -0.00014290
Si       4.43071530       6.66846167       9.69145509  T       0.00008390      -0.00025671       0.00034634
Si      -3.46356066      -6.66846510       9.69145545  T      -0.00008371       0.00025785       0.00034636
Si      -2.82689694      -7.01410800      12.00817446  T       0.00032116      -0.00050722       0.00038032
Si      -1.23987264       7.20202147       7.73588362  T       0.00046764       0.00050613       0.00031740
Si      -2.06614470       6.14352237       9.77338855  T      -0.00010153       0.00028390      -0.00026012
Si      -0.40896458      -5.72195399       9.90840720  T      -0.00014402      -0.00010354       0.00021003
Si      -0.22176426      -7.12841478      11.84421464  T       0.00025729       0.00022488       0.00024303
Si       1.09166307       6.69922757       7.77280488  T       0.00015156       0.00004392      -0.00017102
Si       1.37611553       5.72195190       9.90840667  T       0.00014179       0.00010404       0.00021013
Si       3.03329623      -6.14352243       9.77339124  T       0.00010101      -0.00028373      -0.00026023
Si       2.25298662      -6.89179214      11.91583401  T       0.00028059      -0.00056760       0.00010855
Si       5.05734019      -3.62278259       7.75266035  T      -0.00030919       0.00012554       0.00022377
Si       4.99562041      -4.83511375       9.81828344  T       0.00007353      -0.00052671      -0.00013854
Si      -4.27011037      -0.77371796       9.89350849  T      -0.00026376      -0.00042449      -0.00000960
Si      -4.27643664      -1.95477303      11.96049698  T       0.00016998       0.00006143       0.00019151
Si      -2.42377405      -3.32885669       7.78252271  T       0.00001345      -0.00050098       0.00004430
Si      -2.43370557      -4.58429980       9.84496078  T       0.00011320      -0.00027989       0.00004657
Si      -0.50005479      -0.65866890       9.90528968  T       0.00013638       0.00025936      -0.00014068
Si      -0.51231902      -1.98798763      11.95631176  T       0.00010001       0.00009555       0.00007982
Si       1.46142338      -3.12942975       7.80663908  T       0.00000880      -0.00014330       0.00031434
Si       1.48882233      -4.40992906       9.86851589  T       0.00004617      -0.00021689      -0.00004873
Si       3.41565780      -0.70197227       9.90783027  T       0.00010878      -0.00009540      -0.00001850
Si       3.40903827      -1.99854935      11.96610505  T      -0.00021508      -0.00041701       0.00036897
Si       5.27289946       1.94204403       7.80461062  T       0.00003902      -0.00013671       0.00027583
Si       5.23726068       0.77371617       9.89351077  T       0.00026397       0.00042525      -0.00000972
Si      -4.02846822       4.83511277       9.81828067  T      -0.00007374       0.00052675      -0.00013845
Si      -4.15923073       3.62199257      11.89044981  T      -0.00052374      -0.00023242      -0.00037653
Si      -2.48448490       1.89551797       7.80173835  T       0.00005333      -0.00004364      -0.00014129
Si      -2.44850808       0.70197136       9.90782898  T      -0.00010948       0.00009491      -0.00001848
Si      -0.52167226       4.40992793       9.86851489  T      -0.00004543       0.00021728      -0.00004868
Si      -0.47512715       3.31931995      12.00549352  T       0.00018557       0.00006318       0.00048584
Si       1.49203163       1.87868553       7.80006284  T       0.00028614      -0.00009356      -0.00028983
Si       1.46720431       0.65866771       9.90529003  T      -0.00013655      -0.00025931      -0.00014074
Si       3.40085648       4.58429831       9.84496077  T      -0.00011283       0.00027764       0.00004650
Si       3.40000949       3.42433940      11.97772337  T       0.00007661      -0.00003644       0.00000282
Si       3.79404570       7.01410651      12.00817161  T      -0.00032136       0.00050738       0.00038048
Si       5.31929168       6.15486635      13.98490139  F      -0.73357124       0.35208011      -0.16093410
Si      -4.35214774      -6.15486635      13.98490139  F       0.73357152      -0.35208196      -0.16093264
Si      -4.35214774      -7.52261443      15.91918927  F       0.23575986       0.75316865       0.07771796
Si      -1.28583572       6.89178666      11.91583373  T      -0.00028110       0.00056774       0.00010865
Si      -2.41785985       6.15486635      13.98490139  F       0.25912929       0.00957087       0.10241740
Si      -0.48357197      -6.15486635      13.98490139  F       0.06208800       0.36396711       0.14538455
Si      -0.48357197      -7.52261443      15.91918927  F      -0.02787488       0.05291824       0.03242207
Si       1.18891689       7.12841424      11.84421353  T      -0.00025743      -0.00022495       0.00024298
Si       1.45071591       6.15486635      13.98490139  F      -0.06208730      -0.36397000       0.14538595
Si       3.38500379      -6.15486635      13.98490139  F      -0.25912866      -0.00956825       0.10241819
Si       3.38500379      -7.52261443      15.91918927  F      -0.21759472       0.16974836       0.00364938
Si       5.12637954      -3.62199125      11.89045113  T       0.00052362       0.00023234      -0.00037655
Si       5.31929168      -4.78711827      13.98490139  F      -0.31578828       0.05058545      -0.42843159
Si      -4.35214774      -0.68387404      13.98490139  F       0.18913848      -0.11388419      -0.14109751
Si      -4.35214774      -2.05162212      15.91918927  F       0.11619743       0.16449031      -0.06872836
Si      -2.43286266      -3.42433996      11.97772303  T      -0.00007708       0.00003709       0.00000307
Si      -2.41785985      -4.78711827      13.98490139  F      -0.20733959      -0.01625871      -0.22233904
Si      -0.48357197      -0.68387404      13.98490139  F       0.05853652       0.04321049      -0.23620761
Si      -0.48357197      -2.05162212      15.91918927  F       0.06299101      -0.04331624      -0.06594242
Si       1.44227386      -3.31932005      12.00549385  T      -0.00018580      -0.00006320       0.00048574
Si       1.45071591      -4.78711827      13.98490139  F      -0.01439651       0.10788984      -0.31086506
Si       3.38500379      -0.68387404      13.98490139  F       0.21513388       0.03865044      -0.11327407
Si       3.38500379      -2.05162212      15.91918927  F       0.10715774      -0.08165848      -0.08008383
Si       5.24358402       1.95477329      11.96049795  T      -0.00016976      -0.00006185       0.00019136
Si       5.31929168       0.68387404      13.98490139  F      -0.18913649       0.11388239      -0.14109269
Si      -4.35214774       4.78711827      13.98490139  F       0.31579235      -0.05058697      -0.42843603
Si      -4.35214774       3.41937020      15.91918927  F       0.11647097       0.08741175      -0.07024683
Si      -2.44189135       1.99854872      11.96610425  T       0.00021502       0.00041720       0.00036904
Si      -2.41785985       0.68387404      13.98490139  F      -0.21513153      -0.03865026      -0.11327585
Si      -0.48357197       4.78711827      13.98490139  F       0.01439941      -0.10789060      -0.31086808
Si      -0.48357197       3.41937020      15.91918927  F       0.06911098      -0.13872394       0.03118189
Si       1.47946569       1.98798728      11.95631171  T      -0.00010014      -0.00009557       0.00007980
Si       1.45071591       0.68387404      13.98490139  F      -0.05853443      -0.04321097      -0.23620726
Si       3.38500379       4.78711827      13.98490139  F       0.20734175       0.01625891      -0.22233669
Si       3.38500379       3.41937020      15.91918927  F       0.13128099      -0.15601761       0.02762813
Si       5.31929168       7.52261443      15.91918927  F      -0.23575992      -0.75316717       0.07771784
Si       5.31929168       6.15486635      17.85347716  F      -0.38970638       0.71148833       0.21980783
Si      -4.35214774      -6.15486635      17.85347716  F       0.38970643      -0.71148856       0.21980796
Si      -4.35214774      -7.52261443      19.78776504  F       0.54185517       0.74252034      -1.09394457
Si      -2.41785985       7.52261443      15.91918927  F       0.21759552      -0.16974969       0.00364863
Si      -2.41785985       6.15486635      17.85347716  F      -0.02184692       0.23520854       0.15828217
Si      -0.48357197      -6.15486635      17.85347716  F       0.04999361      -0.27054913       0.07099441
Si      -0.48357197      -7.52261443      19.78776504  F       0.01769529       0.54944052      -0.75921443
Si       1.45071591       7.52261443      15.91918927  F       0.02787494      -0.05291801       0.03242247
Si       1.45071591       6.15486635      17.85347716  F      -0.04999368       0.27054910       0.07099417
Si       3.38500379      -6.15486635      17.85347716  F       0.02184697      -0.23520835       0.15828194
Si       3.38500379      -7.52261443      19.78776504  F      -0.39572118       0.57546754      -0.86165044
Si       5.31929168      -3.41937020      15.91918927  F      -0.11647064      -0.08741225      -0.07024689
Si       5.31929168      -4.78711827      17.85347716  F      -0.22481459       0.27521042       0.21886808
Si      -4.35214774      -0.68387404      17.85347716  F       0.17571537      -0.33088564       0.18395630
Si      -4.35214774      -2.05162212      19.78776504  F       0.81551374      -0.00890320      -0.80455393
Si      -2.41785985      -3.41937020      15.91918927  F      -0.13128073       0.15601770       0.02762854
Si      -2.41785985      -4.78711827      17.85347716  F      -0.11799489      -0.07482885       0.16482502
Si      -0.48357197      -0.68387404      17.85347716  F       0.11106530      -0.04455355       0.12716663
Si      -0.48357197      -2.05162212      19.78776504  F       0.08851347      -0.23173938      -0.13679862
Si       1.45071591      -3.41937020      15.91918927  F      -0.06911124       0.13872365       0.03118063
Si       1.45071591      -4.78711827      17.85347716  F      -0.12680989       0.00779203       0.22870244
Si       3.38500379      -0.68387404      17.85347716  F       0.07812693      -0.00430946       0.08595121
Si       3.38500379      -2.05162212      19.78776504  F       0.18275018      -0.32395291      -0.17711330
Si       5.31929168       2.05162212      15.91918927  F      -0.11619699      -0.16449033      -0.06872837
Si       5.31929168       0.68387404      17.85347716  F      -0.17571537       0.33088567       0.18395642
Si      -4.35214774       4.78711827      17.85347716  F       0.22481464      -0.27521042       0.21886804
Si      -4.35214774       3.41937020      19.78776504  F       0.77762429      -0.02593054      -0.78665045
Si      -2.41785985       2.05162212      15.91918927  F      -0.10715760       0.08165855      -0.08008395
Si      -2.41785985       0.68387404      17.85347716  F      -0.07812704       0.00430944       0.08595109
Si      -0.48357197       4.78711827      17.85347716  F       0.12680977      -0.00779213       0.22870269
Si      -0.48357197       3.41937020      19.78776504  F       0.08847940      -0.21770237      -0.10452723
Si       1.45071591       2.05162212      15.91918927  F      -0.06299111       0.04331633      -0.06594240
Si       1.45071591       0.68387404      17.85347716  F      -0.11106539       0.04455352       0.12716669
Si       3.38500379       4.78711827      17.85347716  F       0.11799478       0.07482887       0.16482512
Si       3.38500379       3.41937020      19.78776504  F       0.23008487      -0.29876375      -0.15218491
