216
Lattice="11.605727294873521 0.0 0.0 0.0 13.401139555673227 0.0 0.0 0.0 28.428109966331448" Properties=species:S:1:pos:R:3:forces:R:3 energy=-1167.9731512467563 free_energy=-1167.9731512467563 pbc="T T T"
Si       0.00000000       0.00000000      20.92624761       0.00000000      -0.00004908       0.00005039
Si      11.60572729      13.40113956      23.29525678       0.00000000      -0.00003798      -0.00003810
Si      11.60572729       2.23352326      24.08492650       0.00000000      -0.00006622       0.00000333
Si      11.60572729       2.23352326      26.45393566       0.00000000      -0.00012134       0.00002262
Si      11.60572729       4.46704652      27.24360538       0.00000000       0.00004280      -0.00002903
Si       0.00000000       4.46704652       1.18450458      -0.00000000      -0.00000241       0.00006260
Si       1.93428788       1.11676163      27.24360538      -0.00000148      -0.00009395      -0.00004849
Si       1.93428788       1.11676163       1.18450458       0.00000497       0.00004175       0.00000108
Si       1.93428788       3.35028489      20.92624761      -0.00002748      -0.00003440       0.00000862
Si       1.93428788       3.35028489      23.29525678       0.00002101       0.00000720      -0.00003489
Si       1.93428788       5.58380815      24.08492650       0.00003673      -0.00005683      -0.00002847
Si       1.93428788       5.58380815      26.45393566       0.00013245      -0.00002227       0.00000629
Si       3.86857576      13.40113956      20.92624761      -0.00004388      -0.00006402       0.00005982
Si       3.86857576      13.40113956      23.29525678      -0.00000398      -0.00004220      -0.00004845
Si       3.86857576       2.23352326      24.08492650      -0.00001069      -0.00007190      -0.00003324
Si       3.86857576       2.23352326      26.45393566       0.00004191      -0.00004515      -0.00001432
Si       3.86857576       4.46704652      27.24360538      -0.00000122      -0.00002045      -0.00004087
Si       3.86857576       4.46704652       1.18450458       0.00006288      -0.00002550      -0.00004055
Si       5.80286365       1.11676163      27.24360538       0.00000000      -0.00016247      -0.00008971
Si       5.80286365       1.11676163       1.18450458       0.00000000       0.00001229      -0.00009145
Si       5.80286365       3.35028489      20.92624761       0.00000000      -0.00004617      -0.00003091
Si       5.80286365       3.35028489      23.29525678      -0.00000000      -0.00001932      -0.00010130
Si       5.80286365       5.58380815      24.08492650       0.00000000      -0.00013152       0.00004455
Si       5.80286365       5.58380815      26.45393566      -0.00000000      -0.00013343       0.00000397
Si       7.73715153      13.40113956      20.92624761       0.00004388      -0.00006402       0.00005982
Si       7.73715153      13.40113956      23.29525678       0.00000398      -0.00004220      -0.00004845
Si       7.73715153       2.23352326      24.08492650       0.00001069      -0.00007190      -0.00003324
Si       7.73715153       2.23352326      26.45393566      -0.00004191      -0.00004515      -0.00001432
Si       7.73715153       4.46704652      27.24360538       0.00000122      -0.00002045      -0.00004087
Si       7.73715153       4.46704652       1.18450458      -0.00006288      -0.00002550      -0.00004055
Si       9.67143941       1.11676163      27.24360538       0.00000148      -0.00009395      -0.00004849
Si       9.67143941       1.11676163       1.18450458      -0.00000497       0.00004175       0.00000108
Si       9.67143941       3.35028489      20.92624761       0.00002748      -0.00003440       0.00000862
Si       9.67143941       3.35028489      23.29525678      -0.00002101       0.00000720      -0.00003489
Si       9.67143941       5.58380815      24.08492650      -0.00003673      -0.00005683      -0.00002847
Si       9.67143941       5.58380815      26.45393566      -0.00013245      -0.00002227       0.00000629
Si      11.60572729       6.70056978      20.92624761       0.00000000      -0.00012406       0.00003904
Si      11.60572729       6.70056978      23.29525678       0.00000000      -0.00008006       0.00006715
Si      11.60572729       8.93409304      24.08492650      -0.00000000      -0.00011511      -0.00004291
Si      11.60572729       8.93409304      26.45393566       0.00000000       0.00001481      -0.00009977
Si      11.60572729      11.16761630      27.24360538       0.00000000      -0.00001069      -0.00010881
Si       0.00000000      11.16761630       1.18450458       0.00000000       0.00002511      -0.00010701
Si       1.93428788       7.81733141      27.24360538       0.00003125      -0.00014191      -0.00000500
Si       1.93428788       7.81733141       1.18450458       0.00004717      -0.00001908      -0.00003326
Si       1.93428788      10.05085467      20.92624761       0.00001250      -0.00010991       0.00004345
Si       1.93428788      10.05085467      23.29525678      -0.00005679      -0.00001191      -0.00005438
Si       1.93428788      12.28437793      24.08492650      -0.00006916      -0.00010051       0.00006309
Si       1.93428788      12.28437793      26.45393566      -0.00004469      -0.00002002       0.00003126
Si       3.86857576       6.70056978      20.92624761      -0.00005621      -0.00009934       0.00004659
Si       3.86857576       6.70056978      23.29525678      -0.00005033      -0.00007410      -0.00004316
Si       3.86857576       8.93409304      24.08492650      -0.00003046      -0.00010110      -0.00003522
Si       3.86857576       8.93409304      26.45393566       0.00001636      -0.00001524       0.00002422
Si       3.86857576      11.16761630      27.24360538       0.00000782      -0.00004818      -0.00006583
Si       3.86857576      11.16761630       1.18450458      -0.00000912       0.00001148       0.00000907
P        5.80286365       7.81733141      27.24360538      -0.00000000      -0.00008013       0.00006567
Si       5.80286365       7.81733141       1.18450458      -0.00000000       0.00000838       0.00005352
Si       5.80286365      10.05085467      20.92624761      -0.00000000      -0.00003985       0.00001720
Si       5.80286365      10.05085467      23.29525678      -0.00000000       0.00002502      -0.00006206
Si       5.80286365      12.28437793      24.08492650       0.00000000      -0.00007731       0.00007099
Si       5.80286365      12.28437793      26.45393566      -0.00000000       0.00002247       0.00000704
Si       7.73715153       6.70056978      20.92624761       0.00005621      -0.00009934       0.00004659
Si       7.73715153       6.70056978      23.29525678       0.00005033      -0.00007410      -0.00004316
Si       7.73715153       8.93409304      24.08492650       0.00003046      -0.00010110      -0.00003522
Si       7.73715153       8.93409304      26.45393566      -0.00001636      -0.00001524       0.00002422
Si       7.73715153      11.16761630      27.24360538      -0.00000782      -0.00004818      -0.00006583
Si       7.73715153      11.16761630       1.18450458       0.00000912       0.00001148       0.00000907
Si       9.67143941       7.81733141      27.24360538      -0.00003125      -0.00014191      -0.00000500
Si       9.67143941       7.81733141       1.18450458      -0.00004717      -0.00001908      -0.00003326
Si       9.67143941      10.05085467      20.92624761      -0.00001250      -0.00010991       0.00004345
Si       9.67143941      10.05085467      23.29525678       0.00005679      -0.00001191      -0.00005438
Si       9.67143941      12.28437793      24.08492650       0.00006916      -0.00010051       0.00006309
Si       9.67143941      12.28437793      26.45393566       0.00004469      -0.00002002       0.00003126
Si      11.60572729      13.40113956       1.97417430      -0.00000000       0.00004718       0.00000127
Si      11.60572729      13.40113956       4.34318347      -0.00000000       0.00005745      -0.00002650
Si      11.60572729       2.23352326       5.13285319      -0.00000000       0.00006118       0.00001612
Si      11.60572729       2.23352326       7.50186235       0.00000000      -0.00000065       0.00001288
Si      11.60572729       4.46704652       8.29153207       0.00000000       0.00007931      -0.00005851
Si       0.00000000       4.46704652      10.66054124      -0.00000000       0.00007284       0.00003339
Si       1.93428788       1.11676163       8.29153207       0.00000185       0.00001769       0.00004249
Si       1.93428788       1.11676163      10.66054124      -0.00003647       0.00010207       0.00002102
Si       1.93428788       3.35028489       1.97417430      -0.00002869      -0.00002312       0.00000499
Si       1.93428788       3.35028489       4.34318347       0.00005264       0.00005002       0.00000510
Si       1.93428788       5.58380815       5.13285319       0.00003491       0.00000474      -0.00002731
Si       1.93428788       5.58380815       7.50186235       0.00013977       0.00008634      -0.00000571
Si       3.86857576      13.40113956       1.97417430      -0.00000887      -0.00004540      -0.00002165
Si       3.86857576      13.40113956       4.34318347       0.00001355       0.00006403      -0.00003318
Si       3.86857576       2.23352326       5.13285319       0.00000999       0.00002080       0.00000272
Si       3.86857576       2.23352326       7.50186235       0.00002319       0.00007732      -0.00000325
Si       3.86857576       4.46704652       8.29153207       0.00001080       0.00015175      -0.00003440
Si       3.86857576       4.46704652      10.66054124       0.00003152       0.00010261      -0.00005383
Si       5.80286365       1.11676163       8.29153207      -0.00000000       0.00001042      -0.00001317
Si       5.80286365       1.11676163      10.66054124       0.00000000       0.00012037      -0.00005371
Si       5.80286365       3.35028489       1.97417430       0.00000000      -0.00001890      -0.00006393
Si       5.80286365       3.35028489       4.34318347      -0.00000000       0.00003239      -0.00010521
Si       5.80286365       5.58380815       5.13285319      -0.00000000      -0.00004385       0.00011491
Si       5.80286365       5.58380815       7.50186235       0.00000000       0.00000992       0.00002452
Si       7.73715153      13.40113956       1.97417430       0.00000887      -0.00004540      -0.00002165
Si       7.73715153      13.40113956       4.34318347      -0.00001355       0.00006403      -0.00003318
Si       7.73715153       2.23352326       5.13285319      -0.00000999       0.00002080       0.00000272
Si       7.73715153       2.23352326       7.50186235      -0.00002319       0.00007732      -0.00000325
Si       7.73715153       4.46704652       8.29153207      -0.00001080       0.00015175      -0.00003440
Si       7.73715153       4.46704652      10.66054124      -0.00003152       0.00010261      -0.00005383
Si       9.67143941       1.11676163       8.29153207      -0.00000185       0.00001769       0.00004249
Si       9.67143941       1.11676163      10.66054124       0.00003647       0.00010207       0.00002102
Si       9.67143941       3.35028489       1.97417430       0.00002869      -0.00002312       0.00000499
Si       9.67143941       3.35028489       4.34318347      -0.00005264       0.00005002       0.00000510
Si       9.67143941       5.58380815       5.13285319      -0.00003491       0.00000474      -0.00002731
Si       9.67143941       5.58380815       7.50186235      -0.00013977       0.00008634      -0.00000571
Si      11.60572729       6.70056978       1.97417430      -0.00000000      -0.00010925       0.00007953
Si      11.60572729       6.70056978       4.34318347       0.00000000      -0.00001551       0.00006472
Si      11.60572729       8.93409304       5.13285319      -0.00000000      -0.00008061       0.00000622
Si      11.60572729       8.93409304       7.50186235       0.00000000       0.00005500      -0.00007408
Si      11.60572729      11.16761630       8.29153207      -0.00000000       0.00002317       0.00006116
Si       0.00000000      11.16761630      10.66054124      -0.00000000       0.00010030      -0.00000317
Si       1.93428788       7.81733141       8.29153207       0.00005616      -0.00004623       0.00002943
Si       1.93428788       7.81733141      10.66054124       0.00003086       0.00009625       0.00000260
Si       1.93428788      10.05085467       1.97417430       0.00011808      -0.00008488       0.00003132
Si       1.93428788      10.05085467       4.34318347      -0.00000352       0.00003188      -0.00001503
Si       1.93428788      12.28437793       5.13285319      -0.00001169      -0.00001472       0.00006573
Si       1.93428788      12.28437793       7.50186235      -0.00003106       0.00005870       0.00006187
Si       3.86857576       6.70056978       1.97417430       0.00001189      -0.00009827       0.00001723
Si       3.86857576       6.70056978       4.34318347      -0.00004227       0.00002387      -0.00007544
Si       3.86857576       8.93409304       5.13285319       0.00001507      -0.00001199       0.00003724
Si       3.86857576       8.93409304       7.50186235       0.00002582       0.00007903       0.00001550
Si       3.86857576      11.16761630       8.29153207       0.00002138       0.00000107       0.00009315
Si       3.86857576      11.16761630      10.66054124      -0.00003963       0.00005854       0.00003112
Si       5.80286365       7.81733141       8.29153207       0.00000000       0.00008426       0.00007946
Si       5.80286365       7.81733141      10.66054124       0.00000000       0.00010481       0.00002657
Si       5.80286365      10.05085467       1.97417430      -0.00000000      -0.00002753      -0.00004598
Si       5.80286365      10.05085467       4.34318347       0.00000000       0.00006445      -0.00005338
Si       5.80286365      12.28437793       5.13285319       0.00000000      -0.00003089       0.00012711
Si       5.80286365      12.28437793       7.50186235       0.00000000       0.00010865       0.00001542
Si       7.73715153       6.70056978       1.97417430      -0.00001189      -0.00009827       0.00001723
Si       7.73715153       6.70056978       4.34318347       0.00004227       0.00002387      -0.00007544
Si       7.73715153       8.93409304       5.13285319      -0.00001507      -0.00001199       0.00003724
Si       7.73715153       8.93409304       7.50186235      -0.00002582       0.00007903       0.00001550
Si       7.73715153      11.16761630       8.29153207      -0.00002138       0.00000107       0.00009315
Si       7.73715153      11.16761630      10.66054124       0.00003963       0.00005854       0.00003112
Si       9.67143941       7.81733141       8.29153207      -0.00005616      -0.00004623       0.00002943
Si       9.67143941       7.81733141      10.66054124      -0.00003086       0.00009625       0.00000260
Si       9.67143941      10.05085467       1.97417430      -0.00011808      -0.00008488       0.00003132
Si       9.67143941      10.05085467       4.34318347       0.00000352       0.00003188      -0.00001503
Si       9.67143941      12.28437793       5.13285319       0.00001169      -0.00001472       0.00006573
Si       9.67143941      12.28437793       7.50186235       0.00003106       0.00005870       0.00006187
Si      11.60572729      13.40113956      11.45021096      -0.00000000      -0.00000605       0.00006388
Si      11.60572729      13.40113956      13.81922012      -0.00000000       0.00002689      -0.00000477
Si      11.60572729       2.23352326      14.60888984       0.00000000       0.00005051       0.00007560
Si      11.60572729       2.23352326      16.97789901       0.00000000       0.00011079       0.00001592
Si      11.60572729       4.46704652      17.76756873       0.00000000      -0.00003339       0.00001842
Si       0.00000000       4.46704652      20.13657789       0.00000000       0.00003342      -0.00012718
Si       1.93428788       1.11676163      17.76756873      -0.00008192       0.00004291       0.00003035
Si       1.93428788       1.11676163      20.13657789       0.00000615       0.00000833      -0.00000322
Si       1.93428788       3.35028489      11.45021096      -0.00003650       0.00006328       0.00004042
Si       1.93428788       3.35028489      13.81922012       0.00002879       0.00010317      -0.00003289
Si       1.93428788       5.58380815      14.60888984       0.00002627      -0.00001190       0.00000276
Si       1.93428788       5.58380815      16.97789901      -0.00000080       0.00004360      -0.00001031
Si       3.86857576      13.40113956      11.45021096      -0.00003622       0.00001695       0.00008308
Si       3.86857576      13.40113956      13.81922012      -0.00000963       0.00005284      -0.00002793
Si       3.86857576       2.23352326      14.60888984      -0.00002985       0.00005174       0.00002221
Si       3.86857576       2.23352326      16.97789901      -0.00000407       0.00005261       0.00001292
Si       3.86857576       4.46704652      17.76756873      -0.00003485       0.00003568       0.00000085
Si       3.86857576       4.46704652      20.13657789       0.00004544      -0.00003100      -0.00009224
Si       5.80286365       1.11676163      17.76756873      -0.00000000      -0.00002739      -0.00002850
Si       5.80286365       1.11676163      20.13657789       0.00000000      -0.00001200      -0.00005226
Si       5.80286365       3.35028489      11.45021096       0.00000000       0.00012963      -0.00000550
Si       5.80286365       3.35028489      13.81922012       0.00000000       0.00009918      -0.00008344
Si       5.80286365       5.58380815      14.60888984       0.00000000       0.00000542       0.00004815
Si       5.80286365       5.58380815      16.97789901      -0.00000000      -0.00004154       0.00006128
Si       7.73715153      13.40113956      11.45021096       0.00003622       0.00001695       0.00008308
Si       7.73715153      13.40113956      13.81922012       0.00000963       0.00005284      -0.00002793
Si       7.73715153       2.23352326      14.60888984       0.00002985       0.00005174       0.00002221
Si       7.73715153       2.23352326      16.97789901       0.00000407       0.00005261       0.00001292
Si       7.73715153       4.46704652      17.76756873       0.00003485       0.00003568       0.00000085
Si       7.73715153       4.46704652      20.13657789      -0.00004544      -0.00003100      -0.00009224
Si       9.67143941       1.11676163      17.76756873       0.00008192       0.00004291       0.00003035
Si       9.67143941       1.11676163      20.13657789      -0.00000615       0.00000833      -0.00000322
Si       9.67143941       3.35028489      11.45021096       0.00003650       0.00006328       0.00004042
Si       9.67143941       3.35028489      13.81922012      -0.00002879       0.00010317      -0.00003289
Si       9.67143941       5.58380815      14.60888984      -0.00002627      -0.00001190       0.00000276
Si       9.67143941       5.58380815      16.97789901       0.00000080       0.00004360      -0.00001031
Si      11.60572729       6.70056978      11.45021096      -0.00000000      -0.00002986       0.00008302
Si      11.60572729       6.70056978      13.81922012      -0.00000000       0.00004182       0.00005033
Si      11.60572729       8.93409304      14.60888984      -0.00000000      -0.00003349      -0.00003684
Si      11.60572729       8.93409304      16.97789901       0.00000000       0.00002175      -0.00007775
Si      11.60572729      11.16761630      17.76756873      -0.00000000      -0.00003667       0.00000996
Si       0.00000000      11.16761630      20.13657789       0.00000000      -0.00001835      -0.00007867
Si       1.93428788       7.81733141      17.76756873      -0.00002806      -0.00016877      -0.00000073
Si       1.93428788       7.81733141      20.13657789       0.00001069       0.00002736      -0.00002815
Si       1.93428788      10.05085467      11.45021096       0.00005645       0.00000453       0.00003469
Si       1.93428788      10.05085467      13.81922012      -0.00000810       0.00006937      -0.00005715
Si       1.93428788      12.28437793      14.60888984      -0.00009232      -0.00000078       0.00004847
Si       1.93428788      12.28437793      16.97789901      -0.00006398       0.00004509      -0.00000502
Si       3.86857576       6.70056978      11.45021096      -0.00001009       0.00002084       0.00006256
Si       3.86857576       6.70056978      13.81922012      -0.00008802       0.00005714      -0.00005130
Si       3.86857576       8.93409304      14.60888984      -0.00001899      -0.00002375      -0.00000084
Si       3.86857576       8.93409304      16.97789901      -0.00000698       0.00006190      -0.00001394
Si       3.86857576      11.16761630      17.76756873      -0.00000715      -0.00005289      -0.00000477
Si       3.86857576      11.16761630      20.13657789      -0.00002448      -0.00001436       0.00004304
Si       5.80286365       7.81733141      17.76756873       0.00000000      -0.00009936       0.00003936
Si       5.80286365       7.81733141      20.13657789      -0.00000000       0.00009985       0.00004510
Si       5.80286365      10.05085467      11.45021096      -0.00000000       0.00003870       0.00002063
Si       5.80286365      10.05085467      13.81922012      -0.00000000       0.00010622      -0.00004625
Si       5.80286365      12.28437793      14.60888984       0.00000000      -0.00005882       0.00012223
Si       5.80286365      12.28437793      16.97789901       0.00000000       0.00007761      -0.00000919
Si       7.73715153       6.70056978      11.45021096       0.00001009       0.00002084       0.00006256
Si       7.73715153       6.70056978      13.81922012       0.00008802       0.00005714      -0.00005130
Si       7.73715153       8.93409304      14.60888984       0.00001899      -0.00002375      -0.00000084
Si       7.73715153       8.93409304      16.97789901       0.00000698       0.00006190      -0.00001394
Si       7.73715153      11.16761630      17.76756873       0.00000715      -0.00005289      -0.00000477
Si       7.73715153      11.16761630      20.13657789       0.00002448      -0.00001436       0.00004304
Si       9.67143941       7.81733141      17.76756873       0.00002806      -0.00016877      -0.00000073
Si       9.67143941       7.81733141      20.13657789      -0.00001069       0.00002736      -0.00002815
Si       9.67143941      10.05085467      11.45021096      -0.00005645       0.00000453       0.00003469
Si       9.67143941      10.05085467      13.81922012       0.00000810       0.00006937      -0.00005715
Si       9.67143941      12.28437793      14.60888984       0.00009232      -0.00000078       0.00004847
Si       9.67143941      12.28437793      16.97789901       0.00006398       0.00004509      -0.00000502
