216
Lattice="11.605727294873521 0.0 0.0 0.0 13.401139555673227 0.0 0.0 0.0 28.428109966331448" Properties=species:S:1:pos:R:3:forces:R:3:energies:R:1 energy=-1164.2094064716257 stress="0.0037745530093491186 1.1325294548518484e-06 1.6805039810410078e-06 1.1325294548518484e-06 0.0037923225027669118 1.1209211016908658e-06 1.6805039810410078e-06 1.1209211016908658e-06 0.0038719160502540552" free_energy=-1164.2094064716257 pbc="T T T"
Si       0.00120530      13.39790392      20.95792429       0.00000300      -0.00005723       0.00000299      -5.38383093
Si       0.00283284      13.39344586      23.33377611      -0.00000346      -0.00004690      -0.00001915      -5.38278390
Si       0.00991822       2.22360397      24.13506218       0.00002919      -0.00002032      -0.00003522      -5.37188998
Si       0.03083102       2.20685103      26.52052534       0.00005017      -0.00004573      -0.00003939      -5.35402820
Si       0.00113601       4.45522903      27.25440194       0.00001260       0.00002071       0.00005707      -5.38486840
Si       0.03129878       4.41061272       1.18032182       0.00002887      -0.00005893      -0.00002598      -5.36772403
Si       1.94464539       1.11320661      27.47676428      -0.00000290      -0.00004002      -0.00013207      -5.40078363
B        1.93538156       1.11426974       1.18242245       0.00004885       0.00000973      -0.00006484      -6.51280342
Si       1.93429332       3.34943062      20.95339845       0.00003909      -0.00001775       0.00007309      -5.38257944
Si       1.93480423       3.34875789      23.32829745      -0.00000874       0.00003010      -0.00002548      -5.38342343
Si       1.93997764       5.58630444      24.10820545       0.00006488      -0.00000915       0.00001732      -5.37811115
Si       1.94182157       5.58110392      26.47586505      -0.00001092      -0.00000657      -0.00005743      -5.38063001
Si       3.86786594       0.00235372      20.95773331       0.00007141       0.00002910      -0.00004345      -5.38339159
Si       3.86754136       0.00531564      23.33362643      -0.00002413       0.00001124      -0.00007529      -5.38219441
Si       3.86171308       2.23814831      24.14002573       0.00002029       0.00001125      -0.00004849      -5.37490893
Si       3.84663342       2.24697111      26.52443954       0.00001865       0.00002242      -0.00007774      -5.34114021
Si       3.89950727       4.51345230      27.25442909       0.00005123       0.00006241       0.00005153      -5.35451293
Si       3.83764426       4.42064073       1.17368088      -0.00005123      -0.00006241      -0.00005153      -5.35451293
Si       5.79480492       1.13092622      27.25765942       0.00004293       0.00001438       0.00000085      -5.38887425
Si       5.75004241       1.11912583       1.18317957      -0.00010012       0.00001458      -0.00008662      -5.35603742
Si       5.80071916       3.35627183      20.96211266       0.00003230      -0.00002350       0.00001018      -5.38152225
Si       5.79586061       3.37345818      23.34570084       0.00001344       0.00001912      -0.00001827      -5.36736765
Si       5.80214438       5.62192039      24.15310642      -0.00002758       0.00003667       0.00003591      -5.35713245
Si       5.80207181       5.79806709      26.54105972      -0.00000317      -0.00011553      -0.00009508      -5.39766969
Si       7.73670556       0.00097478      20.94968331      -0.00004135       0.00005229      -0.00001987      -5.38484112
Si       7.73550856       0.00272967      23.32144818       0.00001429       0.00004005      -0.00005782      -5.37860922
Si       7.73431360       2.24340191      24.10961313       0.00000785       0.00002692      -0.00001047      -5.38886282
Si       7.72747331       2.26406926      26.47529704      -0.00006355       0.00007538      -0.00012866      -5.37065867
Si       7.70585275       4.52348032      27.24778814      -0.00002887       0.00005893       0.00002598      -5.36772403
Si       7.73601552       4.47886400       1.17370803      -0.00001260      -0.00002071      -0.00005707      -5.38486840
Si       9.66833852       1.11808774      27.25480637      -0.00002304      -0.00000142      -0.00002707      -5.38268473
Si       9.72199669       1.11587573       1.18268401       0.00003762      -0.00000035      -0.00004215      -5.35292253
Si       9.67357956       3.34862948      20.95084113      -0.00004215       0.00000429       0.00006494      -5.38313886
Si       9.67795153       3.34700942      23.32533897      -0.00001374       0.00002083      -0.00000665      -5.37869081
Si       9.66678225       5.58646456      24.10558230       0.00000779      -0.00001721       0.00004510      -5.38046816
Si       9.66570383       5.58586374      26.47254193      -0.00000612      -0.00000976      -0.00003966      -5.38581418
Si       0.00059046       6.70061759      20.94497174       0.00000918       0.00007734       0.00004313      -5.38375264
Si       0.00111511       6.70003341      23.31606096       0.00002295       0.00001083       0.00004063      -5.37939253
Si       0.00101000       8.92917958      24.11207002       0.00005814       0.00001847       0.00001378      -5.38972025
Si       0.00244299       8.92186588      26.47653673       0.00002013       0.00001590      -0.00001590      -5.35651640
Si       0.00844860      11.16347387      27.25648020       0.00002867      -0.00003431       0.00000527      -5.38836701
Si       0.03188344      11.21758559       1.18085254       0.00003092       0.00004860       0.00002795      -5.35286830
Si       1.98710912       7.81496721      27.24493040       0.00010012      -0.00001458       0.00008662      -5.35603742
Si       1.94234661       7.80316682       1.17045055      -0.00004293      -0.00001438      -0.00000085      -5.38887425
Si       1.93869887      10.04987482      20.96456169       0.00000589      -0.00000626       0.00000426      -5.38175827
Si       1.95198415      10.04477347      23.34894243       0.00000544      -0.00003394       0.00004118      -5.36661813
Si       1.94086868      12.28788750      24.14193984       0.00002359      -0.00000452      -0.00002608      -5.37726421
Si       1.95390933      12.29646531      26.52544714       0.00002482      -0.00001974       0.00002039      -5.33873060
Si       3.86971635       6.70250016      20.94717419      -0.00000488      -0.00000396       0.00004152      -5.38470446
Si       3.87553165       6.70680191      23.32091209      -0.00001346       0.00001707       0.00001747      -5.38462095
Si       3.89846414       8.91722822      24.15403133       0.00002608       0.00000022       0.00000874      -5.35780174
Si       4.04835503       8.82940970      26.54107881      -0.00014712       0.00008301      -0.00005766      -5.39530672
Si       3.89180508      11.11955772      27.25463193       0.00004432      -0.00005849      -0.00001028      -5.35613748
Si       3.84534645      11.21567487       1.17347803      -0.00004432       0.00005849       0.00001028      -5.35613748
B        5.80176997       7.81982330      27.24568752      -0.00004885      -0.00000973       0.00006484      -6.51280342
Si       5.79250614       7.82088643       0.95134569       0.00000290       0.00004002       0.00013207      -5.40078363
Si       5.80271511      10.05034401      20.94884148       0.00001061       0.00003329      -0.00005618      -5.38479858
Si       5.80246435      10.04376814      23.32294663      -0.00004621       0.00000889       0.00002720      -5.38378231
Si       5.80174455      12.28103148      24.11204900       0.00003433       0.00000358      -0.00005604      -5.38033670
Si       5.79654933      12.28464783      26.47906119      -0.00005280       0.00004104      -0.00007784      -5.37722517
Si       7.73545997       6.70079189      20.94611358       0.00002230      -0.00002020      -0.00002185      -5.38477694
Si       7.72928127       6.70466914      23.31968815      -0.00002011      -0.00004589       0.00006438      -5.38458818
Si       7.70652337       8.91574769      24.15195768      -0.00005350       0.00000915       0.00000591      -5.35601546
Si       7.55597297       8.82839353      26.53987711       0.00012055       0.00007870      -0.00006275      -5.39590632
Si       7.70526809      11.11764700      27.24725743      -0.00003092      -0.00004860      -0.00002795      -5.35286830
Si       7.72870293      11.17175872       1.17162977      -0.00002867       0.00003431      -0.00000527      -5.38836701
Si       9.62088213       7.81821731      27.24542596      -0.00003762       0.00000035       0.00004215      -5.35292253
Si       9.67454030       7.81600530       1.17330360       0.00002304       0.00000142       0.00002707      -5.38268473
Si       9.66727872      10.04668036      20.95812480       0.00001016       0.00001188      -0.00003434      -5.38281165
Si       9.65444152      10.03573571      23.33850964       0.00004259       0.00000608       0.00007879      -5.36749721
Si       9.66614751      12.27672909      24.11208489       0.00000122       0.00001484      -0.00002401      -5.38746176
Si       9.65836440      12.26474126      26.47843704      -0.00000425      -0.00003807      -0.00008192      -5.36251644
Si       0.18117856       0.10569950       1.88823285      -0.00012055      -0.00007870       0.00006275      -5.39590632
Si       0.03062816       0.01834535       4.27615229       0.00005350      -0.00000915      -0.00000591      -5.35601546
Si       0.00787026       2.22942389       5.10842181       0.00002011       0.00004589      -0.00006438      -5.38458818
Si       0.00169156       2.23330115       7.48199638      -0.00002230       0.00002020       0.00002185      -5.38477694
Si       0.00044435       4.46825429       8.27096192       0.00000990      -0.00002067      -0.00003874      -5.38305862
Si       0.00035959       4.46789659      10.64589234       0.00001629       0.00001344      -0.00002471      -5.38333227
Si       1.93441325       1.11581174       8.27528112       0.00002465       0.00001390      -0.00009378      -5.38965859
Si       1.93439258       1.11632360      10.64815837      -0.00001493       0.00005538       0.00000640      -5.38393137
Si       1.93507972       3.13602595       1.88705025       0.00000317       0.00011553       0.00009508      -5.39766969
Si       1.93500715       3.31217264       4.27500355       0.00002758      -0.00003667      -0.00003591      -5.35713245
Si       1.94129092       5.56063485       5.08240913      -0.00001344      -0.00001912       0.00001827      -5.36736765
Si       1.93643237       5.57782120       7.46599731      -0.00003230       0.00002350      -0.00001018      -5.38152225
Si       3.68879650       0.10468334       1.88703116       0.00014712      -0.00008301       0.00005766      -5.39530672
Si       3.83868739       0.01686481       4.27407863      -0.00002608      -0.00000022      -0.00000874      -5.35780174
Si       3.86161988       2.22729113       5.10719787       0.00001346      -0.00001707      -0.00001747      -5.38462095
Si       3.86743518       2.23159287       7.48093577       0.00000488       0.00000396      -0.00004152      -5.38470446
Si       3.86916647       4.46630110       8.27123368      -0.00003695      -0.00004884      -0.00001504      -5.38426878
Si       3.86861743       4.46708843      10.64590314      -0.00005046       0.00000481      -0.00000336      -5.38342453
Si       5.80180244       1.11421513       8.27260737       0.00000843       0.00001508      -0.00009592      -5.38361767
Si       5.80257085       1.11525076      10.64701170       0.00000249      -0.00005127      -0.00005042      -5.38352003
Si       5.79532996       3.35298911       1.95224492       0.00001092       0.00000657       0.00005743      -5.38063001
Si       5.79717389       3.34778860       4.31990452      -0.00006488       0.00000915      -0.00001732      -5.37811115
Si       5.80234730       5.58533515       5.09981251       0.00000874      -0.00003010       0.00002548      -5.38342343
Si       5.80285821       5.58466242       7.47471152      -0.00003909       0.00001775      -0.00007309      -5.38257944
Si       7.73470854       0.01222716       1.95157324      -0.00002013      -0.00001590       0.00001590      -5.35651640
Si       7.73614153       0.00491346       4.31603994      -0.00005814      -0.00001847      -0.00001378      -5.38972025
Si       7.73603642       2.23405962       5.11204900      -0.00002295      -0.00001083      -0.00004063      -5.37939253
Si       7.73656107       2.23347544       7.48313822      -0.00000918      -0.00007734      -0.00004313      -5.38375264
Si       7.73611550       4.46812442       8.27306125       0.00001077      -0.00005900      -0.00002474      -5.38299517
Si       7.73675191       4.46716861      10.64714391       0.00001897      -0.00004733      -0.00000779      -5.38350650
Si       9.67234056       1.11721163       8.27484008      -0.00005178       0.00005621      -0.00009320      -5.38400839
Si       9.67161853       1.11639656      10.64842118      -0.00000145      -0.00001520      -0.00005473      -5.38372363
Si       9.67717499       3.34822929       1.95556804       0.00000612       0.00000976       0.00003966      -5.38581418
Si       9.67609657       3.34762847       4.32252767      -0.00000779       0.00001721      -0.00004510      -5.38046816
Si       9.66492729       5.58708361       5.10277099       0.00001374      -0.00002083       0.00000665      -5.37869081
Si       9.66929927       5.58546356       7.47726883       0.00004215      -0.00000429      -0.00006494      -5.38313886
Si       0.00967822       6.67002378       1.95281292       0.00006355      -0.00007538       0.00012866      -5.37065867
Si       0.00283793       6.69069112       4.31849684      -0.00000785      -0.00002692       0.00001047      -5.38886282
Si       0.00164297       8.93136337       5.10666178      -0.00001429      -0.00004005       0.00005782      -5.37860922
Si       0.00044597       8.93311825       7.47842665       0.00004135      -0.00005229       0.00001987      -5.38484112
Si      11.60567047      11.16800048       8.27221114      -0.00000706      -0.00004391      -0.00001095      -5.38344241
Si      11.60541381      11.16774328      10.64624651      -0.00000355      -0.00004104       0.00002421      -5.38377811
Si       1.93564844       7.81301375       8.26625337      -0.00001536      -0.00004512       0.00002612      -5.38202532
Si       1.93479200       7.81655582      10.64269186      -0.00002570       0.00001642      -0.00002195      -5.38309492
Si       1.94060220      10.05058477       1.94904878       0.00005280      -0.00004104       0.00007784      -5.37722517
Si       1.93540698      10.05420111       4.31606097      -0.00003433      -0.00000358       0.00005604      -5.38033670
Si       1.93468718      12.29146445       5.10516333       0.00004621      -0.00000889      -0.00002720      -5.38378231
Si       1.93443642      12.28488858       7.47926849      -0.00001061      -0.00003329       0.00005618      -5.38479858
Si       3.89051811       6.68712192       1.90367043      -0.00001865      -0.00002242       0.00007774      -5.34114021
Si       3.87543845       6.69594473       4.28808424      -0.00002029      -0.00001125       0.00004849      -5.37490893
Si       3.86961017       8.92877740       5.09448353       0.00002413      -0.00001124       0.00007529      -5.38219441
Si       3.86928559       8.93173932       7.47037666      -0.00007141      -0.00002910       0.00004345      -5.38339159
Si       3.86905900      11.16591949       8.26840489       0.00003815       0.00001226      -0.00004099      -5.38394519
Si       3.86908650      11.16700486      10.64382812      -0.00001383      -0.00004104       0.00002237      -5.38338617
Si       5.80350330       7.81826415       8.26777007      -0.00003065       0.00002417       0.00007890      -5.38438443
Si       5.80310141       7.81787341      10.64331481      -0.00003603       0.00005953       0.00002122      -5.38326671
Si       5.78324220      10.03876728       1.90266283      -0.00002482       0.00001974      -0.00002039      -5.33873060
Si       5.79628285      10.04734509       4.28617013      -0.00002359       0.00000452       0.00002608      -5.37726421
Si       5.78516738      12.29045912       5.07916753      -0.00000544       0.00003394      -0.00004118      -5.36661813
Si       5.79845266      12.28535777       7.46354827      -0.00000589       0.00000626      -0.00000426      -5.38175827
Si       7.70632051       6.72724201       1.90758463      -0.00005017       0.00004573       0.00003939      -5.35402820
Si       7.72723331       6.71048907       4.29304779      -0.00002919       0.00002032       0.00003522      -5.37188998
Si       7.73431869       8.94178674       5.09433386       0.00000346       0.00004690       0.00001915      -5.38278390
Si       7.73594623       8.93732868       7.47018568      -0.00000300       0.00005723      -0.00000299      -5.38383093
Si       7.73664783      11.17177644       8.26281107      -0.00004525       0.00006962       0.00001944      -5.38157763
Si       7.73693992      11.16870982      10.64096294       0.00000342      -0.00004355       0.00000163      -5.38250457
Si       9.66940683       7.81928287       8.27002116       0.00002896      -0.00003237       0.00005645      -5.38315766
Si       9.67069094       7.81826138      10.64490221       0.00004489       0.00003436       0.00001404      -5.38351476
Si       9.68451442      10.07049134       1.94967292       0.00000425       0.00003807       0.00008192      -5.36251644
Si       9.67673131      10.05850351       4.31602508      -0.00000122      -0.00001484       0.00002401      -5.38746176
Si       9.68843730      12.29949688       5.08960033      -0.00004259      -0.00000608      -0.00007879      -5.36749721
Si       9.67560011      12.28855223       7.46998517      -0.00001016      -0.00001188       0.00003434      -5.38281165
Si       0.00012838      13.40073837      11.44311535      -0.00000821      -0.00000727      -0.00004247      -5.38339644
Si       0.00015859      13.40076555      13.81790223      -0.00001719      -0.00005692      -0.00004077      -5.38373084
Si       0.00019389       2.23334485      14.61258708       0.00001661       0.00000636      -0.00014555      -5.38336810
Si       0.00037368       2.23293352      16.98757754       0.00000670       0.00001026       0.00002782      -5.38353249
Si       0.00039962       4.46692443      17.78096605      -0.00001897       0.00004733       0.00000779      -5.38350650
Si       0.00103603       4.46596861      20.15504871      -0.00001077       0.00005900       0.00002474      -5.38299517
Si       1.93405012       1.11621963      17.78479516       0.00003603      -0.00005953      -0.00002122      -5.38326671
Si       1.93364823       1.11582889      20.16033989       0.00003065      -0.00002417      -0.00007890      -5.38438443
Si       1.93437663       3.35052740      11.44191912      -0.00001783      -0.00001284      -0.00002296      -5.38330487
Si       1.93440089       3.35034020      13.81698150      -0.00000366       0.00004305      -0.00012881      -5.38348390
Si       1.93443401       5.58436408      14.61103636      -0.00002632      -0.00005197      -0.00003088      -5.38350276
Si       1.93458923       5.58452977      16.98620749       0.00000112      -0.00001458       0.00006254      -5.38299838
Si       3.86850605      13.39985513      11.44221191      -0.00003426       0.00001980      -0.00006702      -5.38341247
Si       3.86836622      13.40057867      13.81751242      -0.00001718      -0.00002623      -0.00006589      -5.38355103
Si       3.86840795       2.23309572      14.61296475      -0.00006955      -0.00000863      -0.00006657      -5.38329197
Si       3.86821525       2.23320599      16.98839959      -0.00001157       0.00001678       0.00001448      -5.38364927
Si       3.86853410       4.46700461      17.78220682       0.00005046      -0.00000481       0.00000336      -5.38342453
Si       3.86798506       4.46779194      20.15687628       0.00003695       0.00004884       0.00001504      -5.38426878
Si       5.80235953       1.11753722      17.78541811       0.00002570      -0.00001642       0.00002195      -5.38309492
Si       5.80150309       1.12107929      20.16185660       0.00001536       0.00004512      -0.00002612      -5.38202532
Si       5.80256230       3.34956327      11.44190248      -0.00000112       0.00001458      -0.00006254      -5.38299838
Si       5.80271752       3.34972896      13.81707361       0.00002632       0.00005197       0.00003088      -5.38350276
Si       5.80275064       5.58375283      14.61112846       0.00000366      -0.00004305       0.00012881      -5.38348390
Si       5.80277490       5.58356564      16.98619084       0.00001783       0.00001284       0.00002296      -5.38330487
Si       7.73708578      13.40035609      11.44157485       0.00002599       0.00003177      -0.00004775      -5.38367840
Si       7.73720337      13.40054232      13.81705691       0.00003385      -0.00003017      -0.00002575      -5.38334507
Si       7.73712701       2.23296029      14.61269293       0.00005348      -0.00002148      -0.00005140      -5.38324574
Si       7.73714204       2.23261188      16.98814753       0.00001735       0.00004285      -0.00002104      -5.38340297
Si       7.73679194       4.46619645      17.78221762      -0.00001629      -0.00001344       0.00002471      -5.38333227
Si       7.73670718       4.46583875      20.15714805      -0.00000990       0.00002067       0.00003874      -5.38305862
Si       9.67218788       1.11583165      17.78320775      -0.00004489      -0.00003436      -0.00001404      -5.38351476
Si       9.67347199       1.11481016      20.15808880      -0.00002896       0.00003237      -0.00005645      -5.38315766
Si       9.67165316       3.35066857      11.44208108       0.00000259      -0.00000055      -0.00003803      -5.38298097
Si       9.67147378       3.35008900      13.81709747      -0.00002367       0.00004349      -0.00003260      -5.38346080
Si       9.67140504       5.58400404      14.61101250       0.00002367      -0.00004349       0.00003260      -5.38346080
Si       9.67122567       5.58342446      16.98602889      -0.00000259       0.00000055       0.00003803      -5.38298097
Si       0.00000949       6.70148116      11.43996244      -0.00001735      -0.00004285       0.00002104      -5.38340297
Si       0.00002452       6.70113275      13.81541703      -0.00005348       0.00002148       0.00005140      -5.38324574
Si      11.60567546       8.93469028      14.61105306      -0.00003385       0.00003017       0.00002575      -5.38334507
Si       0.00006575       8.93487650      16.98653512      -0.00002599      -0.00003177       0.00004775      -5.38367840
Si       0.00021161      11.16652277      17.78714702      -0.00000342       0.00004355      -0.00000163      -5.38250457
Si       0.00050370      11.16345616      20.16529890       0.00004525      -0.00006962      -0.00001944      -5.38157763
Si       1.93458068       7.81884228      17.78109826      -0.00000249       0.00005127       0.00005042      -5.38352003
Si       1.93534909       7.81987791      20.15550259      -0.00000843      -0.00001508       0.00009592      -5.38361767
Si       1.93458632      10.05023754      11.43967534      -0.00004203      -0.00003753      -0.00001512      -5.38298514
Si       1.93436252      10.05100053      13.81548450      -0.00001968      -0.00000474      -0.00000461      -5.38343324
Si       1.93415926      12.28386116      14.61345826      -0.00004170       0.00002510       0.00005458      -5.38315136
Si       1.93361466      12.28391318      16.98939077      -0.00003007      -0.00001352       0.00002995      -5.38371000
Si       3.86893628       6.70088705      11.43971037       0.00001157      -0.00001678      -0.00001448      -5.38364927
Si       3.86874358       6.70099732      13.81514521       0.00006955       0.00000863       0.00006657      -5.38329197
Si       3.86878531       8.93465392      14.61059754       0.00001718       0.00002623       0.00006589      -5.38355103
Si       3.86864548       8.93537746      16.98589806       0.00003426      -0.00001980       0.00006702      -5.38341247
Si       3.86806503      11.16822773      17.78428185       0.00001383       0.00004104      -0.00002237      -5.38338617
Si       3.86809253      11.16931310      20.15970508      -0.00003815      -0.00001226       0.00004099      -5.38394519
Si       5.80275895       7.81776944      17.77995160       0.00001493      -0.00005538      -0.00000640      -5.38393137
Si       5.80273828       7.81828129      20.15282885      -0.00002465      -0.00001390       0.00009378      -5.38965859
Si       5.80353687      10.05131941      11.43871920       0.00003007       0.00001352      -0.00002995      -5.38371000
Si       5.80299227      10.05137143      13.81465171       0.00004170      -0.00002510      -0.00005458      -5.38315136
Si       5.80278901      12.28423207      14.61262547       0.00001968       0.00000474       0.00000461      -5.38343324
Si       5.80256521      12.28499506      16.98843462       0.00004203       0.00003753       0.00001512      -5.38298514
Si       7.73677785       6.70115952      11.44053243      -0.00000670      -0.00001026      -0.00002782      -5.38353249
Si       7.73695764       6.70074818      13.81552289      -0.00001661      -0.00000636       0.00014555      -5.38336810
Si       7.73699294       8.93446704      14.61020774       0.00001719       0.00005692       0.00004077      -5.38373084
Si       7.73702315       8.93449423      16.98499462       0.00000821       0.00000727       0.00004247      -5.38339644
Si       7.73746502      11.16748931      17.78186345       0.00000355       0.00004104      -0.00002421      -5.38377811
Si       7.73720836      11.16723211      20.15589883       0.00000706       0.00004391       0.00001095      -5.38344241
Si       9.67126030       7.81769648      17.77968878       0.00000145       0.00001520       0.00005473      -5.38372363
Si       9.67053827       7.81688141      20.15326988       0.00005178      -0.00005621       0.00009320      -5.38400839
Si       9.67045803      10.05176171      11.43969585      -0.00000186       0.00000266       0.00000601      -5.38346137
Si       9.67123426      10.05125358      13.81528868      -0.00002228      -0.00002246       0.00001602      -5.38332638
Si       9.67164457      12.28397902      14.61282128       0.00002228       0.00002246      -0.00001602      -5.38332638
Si       9.67242079      12.28347088      16.98841412       0.00000186      -0.00000266      -0.00000601      -5.38346137
