216
Lattice="11.605727294873521 0.0 0.0 0.0 13.401139555673227 0.0 0.0 0.0 28.428109966331448" Properties=species:S:1:pos:R:3:forces:R:3:energies:R:1 energy=-1163.782588411666 stress="0.0010254467724861269 -8.736810804021812e-07 1.0399446574044025e-05 -8.736810804021812e-07 0.0010156627833114854 4.42701369533299e-06 1.0399446574044025e-05 4.42701369533299e-06 0.0010488521995365172" free_energy=-1163.782588411666 pbc="T T T"
Si       0.00028040       0.00020624      20.93302250       0.00002152       0.00004148      -0.00001623      -5.38412480
Si       0.00073942       0.00038552      23.30198545       0.00006809       0.00011005      -0.00006377      -5.38521303
Si       0.00109013       2.23412574      24.09627981      -0.00000155      -0.00003311       0.00004030      -5.38934735
Si       0.00145051       2.23262129      26.46873488      -0.00001112       0.00004225       0.00000026      -5.38414068
Si       0.00155261       4.46293951      27.24939773      -0.00002794      -0.00000616      -0.00002572      -5.38925916
Si       0.00117466       4.45713571       1.18123405      -0.00009501       0.00003947       0.00001197      -5.38542735
Si       1.93584653       1.11567935      27.23859646      -0.00003000      -0.00008116      -0.00001618      -5.36345625
P        1.93387903       1.11664056       1.18521508      -0.00004057      -0.00000379      -0.00004977      -5.81651864
Si       1.93475830       3.35076957      20.93372806       0.00005566       0.00003023      -0.00004214      -5.38397950
Si       1.93585786       3.35171498      23.30333661      -0.00006775       0.00002151      -0.00007302      -5.38538677
Si       1.94008888       5.58642700      24.09766649       0.00003935       0.00001562      -0.00003314      -5.37966190
Si       1.93998504       5.57986696      26.46561569      -0.00012174       0.00008884       0.00008930      -5.37832917
Si       3.86875271      13.40066510      20.93372427       0.00002662       0.00003129       0.00000038      -5.38405122
Si       3.86964269      13.39940326      23.30331226       0.00002148       0.00008490       0.00002177      -5.38522279
Si       3.86851679       2.23193175      24.09625683       0.00009631      -0.00005240       0.00003056      -5.39107606
Si       3.86868731       2.23776663      26.46935695      -0.00005469       0.00008024       0.00002871      -5.38674230
Si       3.86797902       4.47100746      27.25167084       0.00009970      -0.00012083      -0.00004868      -5.38667300
Si       3.86917251       4.46308557       1.17643913      -0.00009970       0.00012083       0.00004868      -5.38667300
Si       5.79772797       1.11706848      27.24915500       0.00004480      -0.00007801      -0.00003856      -5.38951846
Si       5.79512656       1.12271927       1.18104811       0.00007103       0.00001769       0.00002609      -5.38566400
Si       5.80265501       3.34993393      20.93507298       0.00005738       0.00001595      -0.00001903      -5.38517200
Si       5.80134442       3.35368760      23.30530374       0.00005277       0.00000247       0.00004011      -5.38967369
Si       5.80273356       5.59243152      24.09518908       0.00013147      -0.00005387       0.00002968      -5.38419841
Si       5.80146093       5.57679660      26.45619647       0.00002904       0.00003462       0.00005687      -5.36114200
Si       7.73699855      13.40035210      20.93393256       0.00007696       0.00002498      -0.00003658      -5.38400580
Si       7.73607930      13.39935617      23.30447525       0.00005859       0.00001811       0.00004681      -5.38329374
Si       7.73648622       2.23303445      24.09202240       0.00005524      -0.00004091       0.00002591      -5.38784993
Si       7.73601513       2.23791505      26.46127011       0.00012059       0.00001018       0.00005802      -5.39480345
Si       7.73597687       4.47695733      27.24687591       0.00009501      -0.00003947      -0.00001197      -5.38542735
Si       7.73559892       4.47115352       1.17871224       0.00002794       0.00000616       0.00002572      -5.38925916
Si       9.67540074       1.11834947      27.24841217       0.00003352      -0.00000117      -0.00003601      -5.38713716
Si       9.67738191       1.11939813       1.18164429      -0.00000004      -0.00002609      -0.00003088      -5.38596110
Si       9.67131386       3.35081828      20.93393277       0.00004464      -0.00002721      -0.00006261      -5.38403563
Si       9.67168345       3.35137085      23.30407094       0.00013178      -0.00005175      -0.00003181      -5.38439984
Si       9.66616854       5.58782579      24.09621983       0.00003934       0.00002988       0.00000030      -5.38076927
Si       9.66772802       5.58616159      26.46204372       0.00000916      -0.00004023       0.00008615      -5.38653667
Si       0.00028977       6.70110212      20.93425042       0.00005702       0.00001122      -0.00001867      -5.38419122
Si       0.00070823       6.70085375      23.30505485      -0.00000931      -0.00003228       0.00006168      -5.38285669
Si       0.00079950       8.93490988      24.09152761       0.00001593       0.00006868       0.00000954      -5.38944729
Si       0.00187869       8.93147218      26.46121950      -0.00001288       0.00003502       0.00009879      -5.39609361
Si       0.00486581      11.17169021      27.24799667      -0.00001691       0.00002964      -0.00000613      -5.38780932
Si       0.00694402      11.17036683       1.17937606      -0.00003115      -0.00001254      -0.00002591      -5.38327307
Si       1.94202497       7.81137377      27.24706186      -0.00007103      -0.00001769      -0.00002609      -5.38566400
Si       1.93942356       7.81702456       1.17895497      -0.00004480       0.00007801       0.00003856      -5.38951846
Si       1.93438693      10.05104979      20.93498411       0.00001291       0.00005661      -0.00001881      -5.38529809
Si       1.93841186      10.05026853      23.30506995       0.00005441       0.00003546       0.00001529      -5.38947084
Si       1.93431060      12.28510023      24.09605336      -0.00002521       0.00004349       0.00005087      -5.39143778
Si       1.93899533      12.28281071      26.46898730       0.00000843       0.00014227      -0.00000032      -5.38596600
Si       3.86924996       6.70114888      20.93428719       0.00005359      -0.00000366       0.00000309      -5.38673168
Si       3.87260224       6.70288342      23.30708627       0.00003224       0.00012391       0.00006026      -5.38330193
Si       3.87583320       8.92947987      24.09553704      -0.00001232      -0.00001667       0.00001457      -5.38439447
Si       3.86203994       8.93813583      26.45677739       0.00007957       0.00005385       0.00008796      -5.36080107
Si       3.87268649      11.16584360      27.25172645      -0.00011399      -0.00005874      -0.00001987      -5.38677873
Si       3.86446504      11.16938900       1.17638351       0.00011399       0.00005874       0.00001987      -5.38677873
P        5.80327250       7.81745248      27.24289488       0.00004057       0.00000379       0.00004977      -5.81651864
Si       5.80130500       7.81841369       1.18951350       0.00003000       0.00008116       0.00001618      -5.36345625
Si       5.80294334      10.04990286      20.93424259       0.00003665       0.00001849      -0.00003668      -5.38669581
Si       5.80259870      10.04597519      23.30712436       0.00009410      -0.00000587      -0.00000441      -5.38329766
Si       5.80218684      12.27777324      24.09799518       0.00001440       0.00004486      -0.00000396      -5.37994880
Si       5.79767792      12.28132671      26.46603432       0.00013480       0.00002017       0.00003929      -5.37755500
Si       7.73636472       6.70100971      20.93399457       0.00006230      -0.00002920       0.00001343      -5.38688125
Si       7.73283355       6.70320396      23.30672000       0.00006907       0.00005645       0.00004239      -5.38283665
Si       7.73016401       8.93032010      24.09465461       0.00008391      -0.00000939       0.00003572      -5.38406912
Si       7.74446133       8.93897517      26.45532983      -0.00004098      -0.00002513       0.00006793      -5.36074792
Si       7.73020751      11.16486577      27.24873391       0.00003115       0.00001254       0.00002591      -5.38327307
Si       7.73228572      11.16354239       1.18011330       0.00001691      -0.00002964       0.00000613      -5.38780932
Si       9.66549691       7.81469491      27.24646568       0.00000004       0.00002609       0.00003088      -5.38596110
Si       9.66747809       7.81574357       1.17969780      -0.00003352       0.00000117       0.00003601      -5.38713716
Si       9.67161205      10.05089107      20.93459990       0.00007836       0.00004806      -0.00002354      -5.38538136
Si       9.66850790      10.04934020      23.30490419      -0.00001567      -0.00004111      -0.00001462      -5.38808818
Si       9.67300682      12.28520511      24.09323435       0.00004487       0.00003876       0.00001649      -5.38674489
Si       9.67360844      12.28542090      26.46460780      -0.00000646      -0.00000562       0.00002813      -5.38386036
Si      11.59841749      13.39625742       1.97278013       0.00004098       0.00002513      -0.00006793      -5.36074792
Si       0.00698752       0.00377294       4.33345535      -0.00008391       0.00000939      -0.00003572      -5.38406912
Si       0.00431798       2.23088908       5.12138996      -0.00006907      -0.00005645      -0.00004239      -5.38283665
Si       0.00078681       2.23308333       7.49411539      -0.00006230       0.00002920      -0.00001343      -5.38688125
Si       0.00041664       4.46661470       8.28544907      -0.00010610      -0.00002511       0.00007050      -5.38408422
Si       0.00006117       4.46692571      10.65613171      -0.00004146       0.00000453      -0.00002338      -5.38348760
Si       1.93432738       1.11677107       8.28715672      -0.00007312      -0.00009749       0.00002693      -5.38439791
Si       1.93429025       1.11677230      10.65712128       0.00000189      -0.00005018       0.00001157      -5.38366653
Si       1.93569060       3.35729643       1.97191350      -0.00002904      -0.00003462      -0.00005687      -5.36114200
Si       1.93441797       3.34166152       4.33292089      -0.00013147       0.00005387      -0.00002968      -5.38419841
Si       1.93580711       5.58040544       5.12280622      -0.00005277      -0.00000247      -0.00004011      -5.38967369
Si       1.93449652       5.58415911       7.49303699      -0.00005738      -0.00001595       0.00001903      -5.38517200
Si       3.87511159      13.39709676       1.97133258      -0.00007957      -0.00005385      -0.00008796      -5.36080107
Si       3.86131833       0.00461317       4.33257293       0.00001232       0.00001667      -0.00001457      -5.38439447
Si       3.86454929       2.23120962       5.12102369      -0.00003224      -0.00012391      -0.00006026      -5.38330193
Si       3.86790157       2.23294416       7.49382277      -0.00005359       0.00000366      -0.00000309      -5.38673168
Si       3.86820260       4.46640010       8.28565452       0.00002375      -0.00002181       0.00006363      -5.38424160
Si       3.86849383       4.46683260      10.65623641       0.00003105       0.00001644      -0.00001382      -5.38349692
Si       5.80230270       1.11671459       8.28542712      -0.00005894      -0.00002734       0.00004964      -5.38407763
Si       5.80274829       1.11671296      10.65608502      -0.00002726       0.00001976       0.00003311      -5.38350482
Si       5.79716649       3.35422608       1.96249427       0.00012174      -0.00008884      -0.00008930      -5.37832917
Si       5.79706265       3.34766603       4.33044348      -0.00003935      -0.00001562       0.00003314      -5.37966190
Si       5.80129367       5.58237805       5.12477336       0.00006775      -0.00002151       0.00007302      -5.38538677
Si       5.80239323       5.58332347       7.49438190      -0.00005566      -0.00003023       0.00004214      -5.38397950
Si       7.73527284       0.00262086       1.96689047       0.00001288      -0.00003502      -0.00009879      -5.39609361
Si       7.73635203      13.40032272       4.33658236      -0.00001593      -0.00006868      -0.00000954      -5.38944729
Si       7.73644330       2.23323929       5.12305512       0.00000931       0.00003228      -0.00006168      -5.38285669
Si       7.73686176       2.23299092       7.49385955      -0.00005702      -0.00001122       0.00001867      -5.38419122
Si       7.73699346       4.46645060       8.28526580      -0.00005098       0.00006589       0.00002477      -5.38373620
Si       7.73713820       4.46693725      10.65620589      -0.00005927       0.00003138       0.00004900      -5.38349936
Si       9.67179536       1.11693012       8.28549330      -0.00000086      -0.00002220       0.00004189      -5.38397831
Si       9.67150984       1.11678837      10.65614816      -0.00005036      -0.00000921       0.00004642      -5.38351918
Si       9.67515081       3.34793145       1.96606624      -0.00000916       0.00004023      -0.00008615      -5.38653667
Si       9.67671028       3.34626724       4.33189014      -0.00003934      -0.00002988      -0.00000030      -5.38076927
Si       9.67119537       5.58272219       5.12403903      -0.00013178       0.00005175       0.00003181      -5.38439984
Si       9.67156497       5.58327475       7.49417720      -0.00004464       0.00002721       0.00006261      -5.38403563
Si       0.00113640       6.69617799       1.96683986      -0.00012059      -0.00001018      -0.00005802      -5.39480345
Si       0.00066531       6.70105859       4.33608757      -0.00005524       0.00004091      -0.00002591      -5.38784993
Si       0.00107223       8.93587642       5.12363472      -0.00005859      -0.00001811      -0.00004681      -5.38329374
Si       0.00015298       8.93488049       7.49417741      -0.00007696      -0.00002498       0.00003658      -5.38400580
Si       0.00028054      11.16829383       8.28580651      -0.00005094       0.00004432       0.00000248      -5.38413733
Si       0.00010676      11.16779162      10.65632843      -0.00001474      -0.00002628       0.00005119      -5.38357249
Si       1.93423434       7.81742121       8.28517191      -0.00003656      -0.00002619      -0.00001345      -5.38356862
Si       1.93423688       7.81722343      10.65612185       0.00000651      -0.00002214       0.00003329      -5.38352660
Si       1.93947361      10.05390588       1.96207565      -0.00013480      -0.00002017      -0.00003929      -5.37755500
Si       1.93496469      10.05745935       4.33011478      -0.00001440      -0.00004486       0.00000396      -5.37994880
Si       1.93455283      12.28925740       5.12098560      -0.00009410       0.00000587       0.00000441      -5.38329766
Si       1.93420819      12.28532974       7.49386738      -0.00003665      -0.00001849       0.00003668      -5.38669581
Si       3.86846422       6.69632640       1.95875302       0.00005469      -0.00008024      -0.00002871      -5.38674230
Si       3.86863474       6.70216129       4.33185314      -0.00009631       0.00005240      -0.00003056      -5.39107606
Si       3.86750884       8.93582933       5.12479771      -0.00002148      -0.00008490      -0.00002177      -5.38522279
Si       3.86839882       8.93456749       7.49438570      -0.00002662      -0.00003129      -0.00000038      -5.38405122
Si       3.86812565      11.16816011       8.28574893      -0.00005852       0.00001223       0.00000975      -5.38421316
Si       3.86840936      11.16776472      10.65628898      -0.00001325      -0.00001074       0.00002124      -5.38354822
Si       5.80246744       7.81701499       8.28556331       0.00004155      -0.00006772      -0.00004075      -5.38354280
Si       5.80273827       7.81728929      10.65633053      -0.00001739      -0.00004309       0.00003149      -5.38361323
Si       5.79815620      10.05242189       1.95912267      -0.00000843      -0.00014227       0.00000032      -5.38596600
Si       5.80284093      10.05013236       4.33205660       0.00002521      -0.00004349      -0.00005087      -5.39143778
Si       5.79873967      12.28496406       5.12304001      -0.00005441      -0.00003546      -0.00001529      -5.38947084
Si       5.80276460      12.28418280       7.49312585      -0.00001291      -0.00005661       0.00001881      -5.38529809
Si       7.73570102       6.70147175       1.95937508       0.00001112      -0.00004225      -0.00000026      -5.38414068
Si       7.73606140       6.69996729       4.33183015       0.00000155       0.00003311      -0.00004030      -5.38934735
Si       7.73641211       8.93370751       5.12612452      -0.00006809      -0.00011005       0.00006377      -5.38521303
Si       7.73687113       8.93388680       7.49508747      -0.00002152      -0.00004148       0.00001623      -5.38412480
Si       7.73702402      11.16797989       8.28519248      -0.00003420      -0.00001245       0.00000286      -5.38327270
Si       7.73712953      11.16778423      10.65608626      -0.00005283      -0.00000320       0.00003443      -5.38362095
Si       9.67164866       7.81713812       8.28544867      -0.00014713      -0.00003831      -0.00000675      -5.38328231
Si       9.67154544       7.81733483      10.65624122      -0.00006643      -0.00004353       0.00002660      -5.38360616
Si       9.66927038      10.04981170       1.96350217       0.00000646       0.00000562      -0.00002813      -5.38386036
Si       9.66987200      10.05002748       4.33487562      -0.00004487      -0.00003876      -0.00001649      -5.38674489
Si       9.67437093      12.28589240       5.12320578       0.00001567       0.00004111       0.00001462      -5.38808818
Si       9.67126678      12.28434153       7.49351007      -0.00007836      -0.00004806       0.00002354      -5.38538136
Si       0.00001946       0.00008548      11.44795295      -0.00003334       0.00000486      -0.00004889      -5.38359631
Si      11.60567940       0.00001054      13.81867878       0.00001617      -0.00001950      -0.00001178      -5.38355891
Si      11.60569252       2.23356742      14.60988424       0.00001950       0.00003074       0.00003572      -5.38356308
Si      11.60571208       2.23356469      16.98059464       0.00002059       0.00002269      -0.00000949      -5.38350047
Si       0.00001333       4.46715579      17.77190408       0.00005927      -0.00003138      -0.00004900      -5.38349936
Si       0.00015807       4.46764244      20.14284417       0.00005098      -0.00006589      -0.00002477      -5.38373620
Si       1.93441326       1.11680374      17.77177943       0.00001739       0.00004309      -0.00003149      -5.38361323
Si       1.93468409       1.11707804      20.14254665      -0.00004155       0.00006772       0.00004075      -5.38354280
Si       1.93425563       3.35022524      11.44796874      -0.00001045       0.00001400      -0.00006231      -5.38362520
Si       1.93427794       3.35034118      13.81868070       0.00002789       0.00000052       0.00001715      -5.38355279
Si       1.93428040       5.58389769      14.60977361       0.00001742      -0.00000160      -0.00005366      -5.38356009
Si       1.93434005       5.58394637      16.98054522       0.00002418      -0.00000212       0.00004237      -5.38355005
Si       3.86853056       0.00004642      11.44794732      -0.00000263       0.00000718      -0.00002690      -5.38361759
Si       3.86860750      13.40111485      13.81866330      -0.00000056       0.00003392      -0.00002519      -5.38356222
Si       3.86860820       2.23353625      14.60987476       0.00000817       0.00001353       0.00002854      -5.38354833
Si       3.86867144       2.23361038      16.98056811      -0.00000847       0.00006151      -0.00003489      -5.38357705
Si       3.86865770       4.46726044      17.77187356      -0.00003105      -0.00001644       0.00001382      -5.38349692
Si       3.86894893       4.46769294      20.14245545      -0.00002375       0.00002181      -0.00006363      -5.38424160
Si       5.80291465       1.11686961      17.77198812      -0.00000651       0.00002214      -0.00003329      -5.38352660
Si       5.80291719       1.11667183      20.14293806       0.00003656       0.00002619       0.00001345      -5.38356862
Si       5.80281148       3.35014667      11.44756475      -0.00002418       0.00000212      -0.00004237      -5.38355005
Si       5.80287113       3.35019535      13.81833636      -0.00001742       0.00000160       0.00005366      -5.38356009
Si       5.80287359       5.58375185      14.60942927      -0.00002789      -0.00000052      -0.00001715      -5.38355279
Si       5.80289590       5.58386779      16.98014122       0.00001045      -0.00001400       0.00006231      -5.38362520
Si       7.73714258       0.00003269      11.44752864      -0.00002719       0.00002669      -0.00003544      -5.38358517
Si       7.73716992      13.40113864      13.81832492      -0.00001492       0.00004065       0.00003169      -5.38353761
Si       7.73716158       2.23350651      14.60973449      -0.00001806       0.00000880      -0.00001567      -5.38355885
Si       7.73712099       2.23357614      16.98050220       0.00005803       0.00003406       0.00000991      -5.38357489
Si       7.73709036       4.46716732      17.77197826       0.00004146      -0.00000453       0.00002338      -5.38348760
Si       7.73673489       4.46747834      20.14266089       0.00010610       0.00002511      -0.00007050      -5.38408422
Si       9.67133339       1.11675820      17.77186874       0.00006643       0.00004353      -0.00002660      -5.38360616
Si       9.67123016       1.11695492      20.14266129       0.00014713       0.00003831       0.00000675      -5.38328231
Si       9.67149971       3.35022605      11.44760496      -0.00002408       0.00000508      -0.00007949      -5.38353723
Si       9.67144379       3.35028342      13.81842360      -0.00000951      -0.00002510       0.00005293      -5.38354249
Si       9.67143504       5.58380962      14.60968637       0.00000951       0.00002510      -0.00005293      -5.38354249
Si       9.67137912       5.58386699      16.98050501       0.00002408      -0.00000508       0.00007949      -5.38353723
Si       0.00003054       6.70051689      11.44760776      -0.00005803      -0.00003406      -0.00000991      -5.38357489
Si      11.60571725       6.70058652      13.81837547       0.00001806      -0.00000880       0.00001567      -5.38355885
Si      11.60570890       8.93409396      14.60978505       0.00001492      -0.00004065      -0.00003169      -5.38353761
Si       0.00000895       8.93406034      16.98058133       0.00002719      -0.00002669       0.00003544      -5.38358517
Si       0.00002200      11.16744836      17.77202371       0.00005283       0.00000320      -0.00003443      -5.38362095
Si       0.00012751      11.16725271      20.14291748       0.00003420       0.00001245      -0.00000286      -5.38327270
Si       1.93440324       7.81738008      17.77202495       0.00002726      -0.00001976      -0.00003311      -5.38350482
Si       1.93484883       7.81737845      20.14268284       0.00005894       0.00002734      -0.00004964      -5.38407763
Si       1.93424767      10.05085130      11.44759128      -0.00001118      -0.00003815      -0.00000235      -5.38353075
Si       1.93422152      10.05088969      13.81837143       0.00000686      -0.00001274       0.00000200      -5.38356002
Si       1.93427416      12.28435935      14.60989518       0.00002640      -0.00002993       0.00004244      -5.38353657
Si       1.93430202      12.28428986      16.98062671      -0.00000605      -0.00000271      -0.00001318      -5.38352418
Si       3.86848009       6.70048266      11.44754186       0.00000847      -0.00006151       0.00003489      -5.38357705
Si       3.86854333       6.70055679      13.81823521      -0.00000817      -0.00001353      -0.00002854      -5.38354833
Si       3.86854403       8.93411775      14.60944667       0.00000056      -0.00003392       0.00002519      -5.38356222
Si       3.86862097       8.93404662      16.98016265       0.00000263      -0.00000718       0.00002690      -5.38361759
Si       3.86874217      11.16746787      17.77182099       0.00001325       0.00001074      -0.00002124      -5.38354822
Si       3.86902588      11.16707248      20.14236104       0.00005852      -0.00001223      -0.00000975      -5.38421316
Si       5.80286128       7.81732074      17.77098868      -0.00000189       0.00005018      -0.00001157      -5.38366653
Si       5.80282415       7.81732197      20.14095325       0.00007312       0.00009749      -0.00002693      -5.38439791
Si       5.80284951      10.05094274      11.44748326       0.00000605       0.00000271       0.00001318      -5.38352418
Si       5.80287737      10.05087324      13.81821478      -0.00002640       0.00002993      -0.00004244      -5.38353657
Si       5.80293001      12.28434290      14.60973854      -0.00000686       0.00001274      -0.00000200      -5.38356002
Si       5.80290386      12.28438129      16.98051869       0.00001118       0.00003815       0.00000235      -5.38353075
Si       7.73716674       6.70052834      11.44751533      -0.00002059      -0.00002269       0.00000949      -5.38350047
Si       7.73718631       6.70052562      13.81822573      -0.00001950      -0.00003074      -0.00003572      -5.38356308
Si       7.73719942       8.93408250      14.60943119      -0.00001617       0.00001950       0.00001178      -5.38355891
Si       7.73713207       8.93400756      16.98015701       0.00003334      -0.00000486       0.00004889      -5.38359631
Si       7.73704477      11.16744097      17.77178154       0.00001474       0.00002628      -0.00005119      -5.38357249
Si       7.73687099      11.16693876      20.14230346       0.00005094      -0.00004432      -0.00000248      -5.38413733
Si       9.67136898       7.81730467      17.77196181       0.00005036       0.00000921      -0.00004642      -5.38351918
Si       9.67108346       7.81716291      20.14261666       0.00000086       0.00002220      -0.00004189      -5.38397831
Si       9.67143128      10.05095839      11.44750851      -0.00006830      -0.00001349      -0.00002120      -5.38350860
Si       9.67148409      10.05088553      13.81827939       0.00000969      -0.00000542       0.00001569      -5.38356098
Si       9.67139473      12.28434706      14.60983058      -0.00000969       0.00000542      -0.00001569      -5.38356098
Si       9.67144754      12.28427420      16.98060145       0.00006830       0.00001349       0.00002120      -5.38350860
