216
Lattice="11.605727294873521 0.0 0.0 0.0 13.401139555673227 0.0 0.0 0.0 28.428109966331448" Properties=species:S:1:pos:R:3:forces:R:3 energy=-1163.3270259940728 free_energy=-1163.3270259940728 pbc="T T T"
Si       0.00000000       0.00000000      20.92624761       0.00000000      -0.00003538      -0.00004928
Si      11.60572729      13.40113956      23.29525678       0.00000000       0.00003269       0.00000958
Si      11.60572729       2.23352326      24.08492650       0.00000000       0.00000940       0.00000279
Si      11.60572729       2.23352326      26.45393566       0.00000000       0.00004487       0.00006946
Si      11.60572729       4.46704652      27.24360538      -0.00000000      -0.00000594      -0.00004174
Si       0.00000000       4.46704652       1.18450458       0.00000000       0.00008511      -0.00007657
Si       1.93428788       1.11676163      27.24360538      -0.00004717       0.00002492      -0.00004640
P        1.93428788       1.11676163       1.18450458      -0.00002064       0.00003687      -0.00001100
Si       1.93428788       3.35028489      20.92624761       0.00001459       0.00001718      -0.00001068
Si       1.93428788       3.35028489      23.29525678      -0.00003274      -0.00003477      -0.00001721
Si       1.93428788       5.58380815      24.08492650       0.00001225       0.00002029      -0.00000235
Si       1.93428788       5.58380815      26.45393566      -0.00001062       0.00000048       0.00000224
Si       3.86857576      13.40113956      20.92624761      -0.00004784       0.00000281      -0.00002672
Si       3.86857576      13.40113956      23.29525678      -0.00000378       0.00005160       0.00005481
Si       3.86857576       2.23352326      24.08492650      -0.00002464       0.00001652       0.00001688
Si       3.86857576       2.23352326      26.45393566      -0.00002669      -0.00011910      -0.00000928
Si       3.86857576       4.46704652      27.24360538      -0.00006408       0.00006876       0.00004142
Si       3.86857576       4.46704652       1.18450458       0.00002709       0.00000235      -0.00003310
Si       5.80286365       1.11676163      27.24360538      -0.00000000       0.00002811      -0.00000142
Si       5.80286365       1.11676163       1.18450458      -0.00000000      -0.00011068      -0.00002774
Si       5.80286365       3.35028489      20.92624761       0.00000000       0.00007771       0.00003068
Si       5.80286365       3.35028489      23.29525678       0.00000000      -0.00011181       0.00003202
Si       5.80286365       5.58380815      24.08492650      -0.00000000       0.00009443       0.00005099
Si       5.80286365       5.58380815      26.45393566      -0.00000000      -0.00008154      -0.00001655
Si       7.73715153      13.40113956      20.92624761       0.00004784       0.00000281      -0.00002672
Si       7.73715153      13.40113956      23.29525678       0.00000378       0.00005160       0.00005481
Si       7.73715153       2.23352326      24.08492650       0.00002464       0.00001652       0.00001688
Si       7.73715153       2.23352326      26.45393566       0.00002669      -0.00011910      -0.00000928
Si       7.73715153       4.46704652      27.24360538       0.00006408       0.00006876       0.00004142
Si       7.73715153       4.46704652       1.18450458      -0.00002709       0.00000235      -0.00003310
Si       9.67143941       1.11676163      27.24360538       0.00004717       0.00002492      -0.00004640
Si       9.67143941       1.11676163       1.18450458       0.00002064       0.00003687      -0.00001100
Si       9.67143941       3.35028489      20.92624761      -0.00001459       0.00001718      -0.00001068
Si       9.67143941       3.35028489      23.29525678       0.00003274      -0.00003477      -0.00001721
Si       9.67143941       5.58380815      24.08492650      -0.00001225       0.00002029      -0.00000235
Si       9.67143941       5.58380815      26.45393566       0.00001062       0.00000048       0.00000224
Si      11.60572729       6.70056978      20.92624761      -0.00000000       0.00001123      -0.00001491
Si      11.60572729       6.70056978      23.29525678       0.00000000      -0.00002330       0.00002440
Si      11.60572729       8.93409304      24.08492650      -0.00000000       0.00003916       0.00003063
Si      11.60572729       8.93409304      26.45393566      -0.00000000       0.00011985      -0.00004474
Si      11.60572729      11.16761630      27.24360538       0.00000000      -0.00000910      -0.00005228
Si       0.00000000      11.16761630       1.18450458      -0.00000000       0.00001429      -0.00000216
Si       1.93428788       7.81733141      27.24360538       0.00003731      -0.00001761       0.00005995
Si       1.93428788       7.81733141       1.18450458       0.00003237       0.00001962      -0.00001356
Si       1.93428788      10.05085467      20.92624761      -0.00002585       0.00001170      -0.00001180
Si       1.93428788      10.05085467      23.29525678      -0.00008872      -0.00000319      -0.00000683
Si       1.93428788      12.28437793      24.08492650      -0.00003461      -0.00002346       0.00001422
Si       1.93428788      12.28437793      26.45393566      -0.00012243       0.00005876       0.00002635
Si       3.86857576       6.70056978      20.92624761      -0.00000923      -0.00005408      -0.00000621
Si       3.86857576       6.70056978      23.29525678      -0.00003750       0.00003786       0.00009885
Si       3.86857576       8.93409304      24.08492650       0.00009368      -0.00006845      -0.00000097
Si       3.86857576       8.93409304      26.45393566      -0.00003859      -0.00000182       0.00000294
Si       3.86857576      11.16761630      27.24360538       0.00007445      -0.00004386       0.00006500
Si       3.86857576      11.16761630       1.18450458      -0.00002045      -0.00005916      -0.00001296
P        5.80286365       7.81733141      27.24360538      -0.00000000       0.00001019       0.00001492
Si       5.80286365       7.81733141       1.18450458      -0.00000000       0.00000005       0.00004125
Si       5.80286365      10.05085467      20.92624761      -0.00000000       0.00000554      -0.00002882
Si       5.80286365      10.05085467      23.29525678      -0.00000000      -0.00001266       0.00005937
Si       5.80286365      12.28437793      24.08492650      -0.00000000      -0.00001665      -0.00000491
Si       5.80286365      12.28437793      26.45393566      -0.00000000      -0.00004586      -0.00000305
Si       7.73715153       6.70056978      20.92624761       0.00000923      -0.00005408      -0.00000621
Si       7.73715153       6.70056978      23.29525678       0.00003750       0.00003786       0.00009885
Si       7.73715153       8.93409304      24.08492650      -0.00009368      -0.00006845      -0.00000097
Si       7.73715153       8.93409304      26.45393566       0.00003859      -0.00000182       0.00000294
Si       7.73715153      11.16761630      27.24360538      -0.00007445      -0.00004386       0.00006500
Si       7.73715153      11.16761630       1.18450458       0.00002045      -0.00005916      -0.00001296
Si       9.67143941       7.81733141      27.24360538      -0.00003731      -0.00001761       0.00005995
Si       9.67143941       7.81733141       1.18450458      -0.00003237       0.00001962      -0.00001356
Si       9.67143941      10.05085467      20.92624761       0.00002585       0.00001170      -0.00001180
Si       9.67143941      10.05085467      23.29525678       0.00008872      -0.00000319      -0.00000683
Si       9.67143941      12.28437793      24.08492650       0.00003461      -0.00002346       0.00001422
Si       9.67143941      12.28437793      26.45393566       0.00012243       0.00005876       0.00002635
Si      11.60572729      13.40113956       1.97417430      -0.00000000       0.00007215       0.00000037
Si      11.60572729      13.40113956       4.34318347       0.00000000       0.00003225       0.00002235
Si      11.60572729       2.23352326       5.13285319      -0.00000000       0.00005288      -0.00001741
Si      11.60572729       2.23352326       7.50186235       0.00000000       0.00000310      -0.00000623
Si      11.60572729       4.46704652       8.29153207      -0.00000000       0.00003651       0.00001764
Si       0.00000000       4.46704652      10.66054124      -0.00000000       0.00001435       0.00002731
Si       1.93428788       1.11676163       8.29153207       0.00000071      -0.00001522       0.00002674
Si       1.93428788       1.11676163      10.66054124       0.00003315      -0.00000411       0.00003906
Si       1.93428788       3.35028489       1.97417430      -0.00002683      -0.00003531       0.00001378
Si       1.93428788       3.35028489       4.34318347      -0.00006776       0.00002236      -0.00004799
Si       1.93428788       5.58380815       5.13285319       0.00000617       0.00007665       0.00002583
Si       1.93428788       5.58380815       7.50186235       0.00000935       0.00003814      -0.00000927
Si       3.86857576      13.40113956       1.97417430      -0.00005176       0.00001718       0.00001274
Si       3.86857576      13.40113956       4.34318347      -0.00004165      -0.00005292      -0.00005123
Si       3.86857576       2.23352326       5.13285319      -0.00004178      -0.00002797      -0.00000768
Si       3.86857576       2.23352326       7.50186235       0.00000112      -0.00000719       0.00001977
Si       3.86857576       4.46704652       8.29153207       0.00001457       0.00001421       0.00003611
Si       3.86857576       4.46704652      10.66054124       0.00002227       0.00001710       0.00001933
Si       5.80286365       1.11676163       8.29153207      -0.00000000      -0.00000942       0.00000745
Si       5.80286365       1.11676163      10.66054124       0.00000000       0.00000709       0.00000399
Si       5.80286365       3.35028489       1.97417430      -0.00000000      -0.00002932      -0.00001388
Si       5.80286365       3.35028489       4.34318347      -0.00000000      -0.00001291      -0.00003190
Si       5.80286365       5.58380815       5.13285319       0.00000000      -0.00002653       0.00001584
Si       5.80286365       5.58380815       7.50186235      -0.00000000      -0.00002001      -0.00005659
Si       7.73715153      13.40113956       1.97417430       0.00005176       0.00001718       0.00001274
Si       7.73715153      13.40113956       4.34318347       0.00004165      -0.00005292      -0.00005123
Si       7.73715153       2.23352326       5.13285319       0.00004178      -0.00002797      -0.00000768
Si       7.73715153       2.23352326       7.50186235      -0.00000112      -0.00000719       0.00001977
Si       7.73715153       4.46704652       8.29153207      -0.00001457       0.00001421       0.00003611
Si       7.73715153       4.46704652      10.66054124      -0.00002227       0.00001710       0.00001933
Si       9.67143941       1.11676163       8.29153207      -0.00000071      -0.00001522       0.00002674
Si       9.67143941       1.11676163      10.66054124      -0.00003315      -0.00000411       0.00003906
Si       9.67143941       3.35028489       1.97417430       0.00002683      -0.00003531       0.00001378
Si       9.67143941       3.35028489       4.34318347       0.00006776       0.00002236      -0.00004799
Si       9.67143941       5.58380815       5.13285319      -0.00000617       0.00007665       0.00002583
Si       9.67143941       5.58380815       7.50186235      -0.00000935       0.00003814      -0.00000927
Si      11.60572729       6.70056978       1.97417430       0.00000000       0.00010463       0.00004901
Si      11.60572729       6.70056978       4.34318347      -0.00000000      -0.00002172      -0.00007590
Si      11.60572729       8.93409304       5.13285319      -0.00000000       0.00002880       0.00006583
Si      11.60572729       8.93409304       7.50186235      -0.00000000      -0.00002174       0.00003544
Si      11.60572729      11.16761630       8.29153207      -0.00000000       0.00000507       0.00002447
Si       0.00000000      11.16761630      10.66054124      -0.00000000      -0.00002738       0.00003065
Si       1.93428788       7.81733141       8.29153207       0.00001148      -0.00000624       0.00002325
Si       1.93428788       7.81733141      10.66054124       0.00001593      -0.00001718      -0.00002113
Si       1.93428788      10.05085467       1.97417430       0.00000996      -0.00000737       0.00001914
Si       1.93428788      10.05085467       4.34318347       0.00002015       0.00003221      -0.00000422
Si       1.93428788      12.28437793       5.13285319      -0.00001293      -0.00000881       0.00005581
Si       1.93428788      12.28437793       7.50186235      -0.00000324      -0.00002420      -0.00001353
Si       3.86857576       6.70056978       1.97417430      -0.00007567      -0.00002998      -0.00010662
Si       3.86857576       6.70056978       4.34318347       0.00000906       0.00000252       0.00006897
Si       3.86857576       8.93409304       5.13285319       0.00002444      -0.00003097       0.00000006
Si       3.86857576       8.93409304       7.50186235      -0.00002467       0.00000612      -0.00006420
Si       3.86857576      11.16761630       8.29153207      -0.00000295       0.00000528      -0.00000130
Si       3.86857576      11.16761630      10.66054124       0.00002679       0.00000306      -0.00001373
Si       5.80286365       7.81733141       8.29153207       0.00000000      -0.00003401       0.00002116
Si       5.80286365       7.81733141      10.66054124       0.00000000       0.00000563       0.00000322
Si       5.80286365      10.05085467       1.97417430      -0.00000000      -0.00002016      -0.00010066
Si       5.80286365      10.05085467       4.34318347       0.00000000      -0.00001915       0.00004368
Si       5.80286365      12.28437793       5.13285319      -0.00000000      -0.00006707       0.00001068
Si       5.80286365      12.28437793       7.50186235      -0.00000000      -0.00000019      -0.00003987
Si       7.73715153       6.70056978       1.97417430       0.00007567      -0.00002998      -0.00010662
Si       7.73715153       6.70056978       4.34318347      -0.00000906       0.00000252       0.00006897
Si       7.73715153       8.93409304       5.13285319      -0.00002444      -0.00003097       0.00000006
Si       7.73715153       8.93409304       7.50186235       0.00002467       0.00000612      -0.00006420
Si       7.73715153      11.16761630       8.29153207       0.00000295       0.00000528      -0.00000130
Si       7.73715153      11.16761630      10.66054124      -0.00002679       0.00000306      -0.00001373
Si       9.67143941       7.81733141       8.29153207      -0.00001148      -0.00000624       0.00002325
Si       9.67143941       7.81733141      10.66054124      -0.00001593      -0.00001718      -0.00002113
Si       9.67143941      10.05085467       1.97417430      -0.00000996      -0.00000737       0.00001914
Si       9.67143941      10.05085467       4.34318347      -0.00002015       0.00003221      -0.00000422
Si       9.67143941      12.28437793       5.13285319       0.00001293      -0.00000881       0.00005581
Si       9.67143941      12.28437793       7.50186235       0.00000324      -0.00002420      -0.00001353
Si      11.60572729      13.40113956      11.45021096       0.00000000       0.00000500      -0.00000126
Si      11.60572729      13.40113956      13.81922012      -0.00000000      -0.00003549       0.00001418
Si      11.60572729       2.23352326      14.60888984      -0.00000000       0.00001251      -0.00006708
Si      11.60572729       2.23352326      16.97789901       0.00000000       0.00001436       0.00003888
Si      11.60572729       4.46704652      17.76756873      -0.00000000       0.00002810      -0.00006351
Si       0.00000000       4.46704652      20.13657789       0.00000000      -0.00006224      -0.00006270
Si       1.93428788       1.11676163      17.76756873       0.00002437       0.00000613      -0.00006472
Si       1.93428788       1.11676163      20.13657789      -0.00005782       0.00004005       0.00000184
Si       1.93428788       3.35028489      11.45021096       0.00002342      -0.00000959       0.00001677
Si       1.93428788       3.35028489      13.81922012       0.00003823       0.00000234       0.00000751
Si       1.93428788       5.58380815      14.60888984      -0.00000265       0.00001820      -0.00002651
Si       1.93428788       5.58380815      16.97789901       0.00000093      -0.00000051       0.00005472
Si       3.86857576      13.40113956      11.45021096       0.00000697       0.00001057       0.00001849
Si       3.86857576      13.40113956      13.81922012       0.00001379       0.00002441      -0.00003621
Si       3.86857576       2.23352326      14.60888984       0.00001640      -0.00001304      -0.00002356
Si       3.86857576       2.23352326      16.97789901      -0.00001817       0.00002366       0.00001544
Si       3.86857576       4.46704652      17.76756873       0.00000484       0.00001920       0.00004587
Si       3.86857576       4.46704652      20.13657789      -0.00003991       0.00003648       0.00000851
Si       5.80286365       1.11676163      17.76756873       0.00000000      -0.00000132      -0.00007427
Si       5.80286365       1.11676163      20.13657789      -0.00000000       0.00004848       0.00000237
Si       5.80286365       3.35028489      11.45021096       0.00000000       0.00002340       0.00002882
Si       5.80286365       3.35028489      13.81922012       0.00000000       0.00005630       0.00003359
Si       5.80286365       5.58380815      14.60888984       0.00000000      -0.00001129       0.00009463
Si       5.80286365       5.58380815      16.97789901       0.00000000      -0.00000734       0.00003724
Si       7.73715153      13.40113956      11.45021096      -0.00000697       0.00001057       0.00001849
Si       7.73715153      13.40113956      13.81922012      -0.00001379       0.00002441      -0.00003621
Si       7.73715153       2.23352326      14.60888984      -0.00001640      -0.00001304      -0.00002356
Si       7.73715153       2.23352326      16.97789901       0.00001817       0.00002366       0.00001544
Si       7.73715153       4.46704652      17.76756873      -0.00000484       0.00001920       0.00004587
Si       7.73715153       4.46704652      20.13657789       0.00003991       0.00003648       0.00000851
Si       9.67143941       1.11676163      17.76756873      -0.00002437       0.00000613      -0.00006472
Si       9.67143941       1.11676163      20.13657789       0.00005782       0.00004005       0.00000184
Si       9.67143941       3.35028489      11.45021096      -0.00002342      -0.00000959       0.00001677
Si       9.67143941       3.35028489      13.81922012      -0.00003823       0.00000234       0.00000751
Si       9.67143941       5.58380815      14.60888984       0.00000265       0.00001820      -0.00002651
Si       9.67143941       5.58380815      16.97789901      -0.00000093      -0.00000051       0.00005472
Si      11.60572729       6.70056978      11.45021096       0.00000000       0.00001164       0.00001688
Si      11.60572729       6.70056978      13.81922012       0.00000000      -0.00000675      -0.00003157
Si      11.60572729       8.93409304      14.60888984       0.00000000      -0.00000002      -0.00007582
Si      11.60572729       8.93409304      16.97789901       0.00000000      -0.00003500      -0.00000109
Si      11.60572729      11.16761630      17.76756873       0.00000000      -0.00001790      -0.00004482
Si       0.00000000      11.16761630      20.13657789       0.00000000      -0.00003847      -0.00001099
Si       1.93428788       7.81733141      17.76756873       0.00001162       0.00000227      -0.00002626
Si       1.93428788       7.81733141      20.13657789       0.00005262      -0.00001467      -0.00003472
Si       1.93428788      10.05085467      11.45021096       0.00002987      -0.00001242      -0.00000228
Si       1.93428788      10.05085467      13.81922012       0.00002475      -0.00002112      -0.00002388
Si       1.93428788      12.28437793      14.60888984       0.00003169      -0.00001148      -0.00007416
Si       1.93428788      12.28437793      16.97789901      -0.00000440      -0.00001181       0.00000158
Si       3.86857576       6.70056978      11.45021096       0.00002614      -0.00000098      -0.00000381
Si       3.86857576       6.70056978      13.81922012       0.00004793      -0.00000657      -0.00001200
Si       3.86857576       8.93409304      14.60888984       0.00000995       0.00000792       0.00004823
Si       3.86857576       8.93409304      16.97789901      -0.00000374       0.00000141       0.00002685
Si       3.86857576      11.16761630      17.76756873       0.00002956      -0.00002539      -0.00004280
Si       3.86857576      11.16761630      20.13657789       0.00003397      -0.00006201      -0.00000626
Si       5.80286365       7.81733141      17.76756873       0.00000000      -0.00000799      -0.00000473
Si       5.80286365       7.81733141      20.13657789      -0.00000000       0.00005389       0.00010875
Si       5.80286365      10.05085467      11.45021096      -0.00000000      -0.00001652      -0.00001472
Si       5.80286365      10.05085467      13.81922012      -0.00000000      -0.00001309      -0.00008070
Si       5.80286365      12.28437793      14.60888984      -0.00000000      -0.00000492      -0.00002858
Si       5.80286365      12.28437793      16.97789901       0.00000000       0.00000288       0.00002412
Si       7.73715153       6.70056978      11.45021096      -0.00002614      -0.00000098      -0.00000381
Si       7.73715153       6.70056978      13.81922012      -0.00004793      -0.00000657      -0.00001200
Si       7.73715153       8.93409304      14.60888984      -0.00000995       0.00000792       0.00004823
Si       7.73715153       8.93409304      16.97789901       0.00000374       0.00000141       0.00002685
Si       7.73715153      11.16761630      17.76756873      -0.00002956      -0.00002539      -0.00004280
Si       7.73715153      11.16761630      20.13657789      -0.00003397      -0.00006201      -0.00000626
Si       9.67143941       7.81733141      17.76756873      -0.00001162       0.00000227      -0.00002626
Si       9.67143941       7.81733141      20.13657789      -0.00005262      -0.00001467      -0.00003472
Si       9.67143941      10.05085467      11.45021096      -0.00002987      -0.00001242      -0.00000228
Si       9.67143941      10.05085467      13.81922012      -0.00002475      -0.00002112      -0.00002388
Si       9.67143941      12.28437793      14.60888984      -0.00003169      -0.00001148      -0.00007416
Si       9.67143941      12.28437793      16.97789901       0.00000440      -0.00001181       0.00000158
